*SPEF "ieee 1481-1999"
*DESIGN "tt_ctrl"
*DATE "10:07:00 Saturday December 06, 2025"
*VENDOR "The OpenROAD Project"
*PROGRAM "OpenROAD"
*VERSION "341650e72dad0dc8571822ff8c5d9c5e365327f7"
*DESIGN_FLOW "NAME_SCOPE LOCAL" "PIN_CAP NONE"
*DIVIDER /
*DELIMITER :
*BUS_DELIMITER []
*T_UNIT 1 NS
*C_UNIT 1 PF
*R_UNIT 1 OHM
*L_UNIT 1 HENRY

*NAME_MAP
*3 ctrl_ena
*4 ctrl_sel_inc
*5 ctrl_sel_rst_n
*6 k_one
*7 k_zero
*8 pad_ui_in[0]
*9 pad_ui_in[1]
*10 pad_ui_in[2]
*11 pad_ui_in[3]
*12 pad_ui_in[4]
*13 pad_ui_in[5]
*14 pad_ui_in[6]
*15 pad_ui_in[7]
*16 pad_ui_in[8]
*17 pad_ui_in[9]
*18 pad_uio_in[0]
*19 pad_uio_in[1]
*20 pad_uio_in[2]
*21 pad_uio_in[3]
*22 pad_uio_in[4]
*23 pad_uio_in[5]
*24 pad_uio_in[6]
*25 pad_uio_in[7]
*26 uio_oe_obuf_I\[0\]\.z
*27 uio_oe_obuf_I\[1\]\.z
*28 uio_oe_obuf_I\[2\]\.z
*29 uio_oe_obuf_I\[3\]\.z
*30 uio_oe_obuf_I\[4\]\.z
*31 uio_oe_obuf_I\[5\]\.z
*32 uio_oe_obuf_I\[6\]\.z
*33 uio_oe_obuf_I\[7\]\.z
*34 uio_out_obuf_I\[0\]\.z
*35 uio_out_obuf_I\[1\]\.z
*36 uio_out_obuf_I\[2\]\.z
*37 uio_out_obuf_I\[3\]\.z
*38 uio_out_obuf_I\[4\]\.z
*39 uio_out_obuf_I\[5\]\.z
*40 uio_out_obuf_I\[6\]\.z
*41 uio_out_obuf_I\[7\]\.z
*42 uo_out_obuf_I\[0\]\.z
*43 uo_out_obuf_I\[1\]\.z
*44 uo_out_obuf_I\[2\]\.z
*45 uo_out_obuf_I\[3\]\.z
*46 uo_out_obuf_I\[4\]\.z
*47 uo_out_obuf_I\[5\]\.z
*48 uo_out_obuf_I\[6\]\.z
*49 uo_out_obuf_I\[7\]\.z
*50 genblk2\[0\]\.tie_guard_I\[0\]\.lo
*51 genblk2\[0\]\.sel_cnt_buf_I\[8\]\.z
*52 genblk2\[0\]\.pad_ui_in_buf_I\[0\]\.z
*53 genblk2\[0\]\.pad_ui_in_buf_I\[1\]\.z
*54 genblk2\[0\]\.pad_ui_in_buf_I\[2\]\.z
*55 genblk2\[0\]\.pad_ui_in_buf_I\[3\]\.z
*56 genblk2\[0\]\.pad_ui_in_buf_I\[4\]\.z
*57 genblk2\[0\]\.pad_ui_in_buf_I\[5\]\.z
*58 genblk2\[0\]\.pad_ui_in_buf_I\[6\]\.z
*59 genblk2\[0\]\.pad_ui_in_buf_I\[7\]\.z
*60 genblk2\[0\]\.pad_ui_in_buf_I\[8\]\.z
*61 genblk2\[0\]\.ctrl_ena_buf_I\.z
*62 genblk2\[0\]\.pad_ui_in_buf_I\[9\]\.z
*63 genblk2\[0\]\.pad_uio_in_buf_I\[0\]\.z
*64 genblk2\[0\]\.pad_uio_in_buf_I\[1\]\.z
*65 genblk2\[0\]\.pad_uio_in_buf_I\[2\]\.z
*66 genblk2\[0\]\.pad_uio_in_buf_I\[3\]\.z
*67 genblk2\[0\]\.pad_uio_in_buf_I\[4\]\.z
*68 genblk2\[0\]\.pad_uio_in_buf_I\[5\]\.z
*69 genblk2\[0\]\.pad_uio_in_buf_I\[6\]\.z
*70 genblk2\[0\]\.pad_uio_in_buf_I\[7\]\.z
*71 genblk2\[0\]\.tie_guard_I\[1\]\.lo
*72 genblk2\[0\]\.sel_cnt_buf_I\[0\]\.z
*73 genblk2\[0\]\.sel_cnt_buf_I\[1\]\.z
*74 genblk2\[0\]\.sel_cnt_buf_I\[2\]\.z
*75 genblk2\[0\]\.sel_cnt_buf_I\[3\]\.z
*76 genblk2\[0\]\.sel_cnt_buf_I\[4\]\.z
*77 genblk2\[0\]\.sel_cnt_buf_I\[5\]\.z
*78 genblk2\[0\]\.sel_cnt_buf_I\[6\]\.z
*79 genblk2\[0\]\.sel_cnt_buf_I\[7\]\.z
*80 spine_bot_ow[0]
*81 spine_bot_ow[10]
*82 spine_bot_ow[11]
*83 spine_bot_ow[12]
*84 spine_bot_ow[13]
*85 spine_bot_ow[14]
*86 spine_bot_ow[15]
*87 spine_bot_ow[16]
*88 spine_bot_ow[17]
*89 spine_bot_ow[18]
*90 spine_bot_ow[19]
*91 spine_bot_ow[1]
*92 spine_bot_ow[20]
*93 spine_bot_ow[21]
*94 spine_bot_ow[22]
*95 spine_bot_ow[23]
*96 spine_bot_ow[24]
*97 spine_bot_ow[25]
*98 spine_bot_ow[2]
*99 spine_bot_ow[3]
*100 spine_bot_ow[4]
*101 spine_bot_ow[5]
*102 spine_bot_ow[6]
*103 spine_bot_ow[7]
*104 spine_bot_ow[8]
*105 spine_bot_ow[9]
*106 genblk2\[1\]\.tie_guard_I\[0\]\.lo
*107 genblk2\[1\]\.sel_cnt_buf_I\[8\]\.z
*108 genblk2\[1\]\.pad_ui_in_buf_I\[0\]\.z
*109 genblk2\[1\]\.pad_ui_in_buf_I\[1\]\.z
*110 genblk2\[1\]\.pad_ui_in_buf_I\[2\]\.z
*111 genblk2\[1\]\.pad_ui_in_buf_I\[3\]\.z
*112 genblk2\[1\]\.pad_ui_in_buf_I\[4\]\.z
*113 genblk2\[1\]\.pad_ui_in_buf_I\[5\]\.z
*114 genblk2\[1\]\.pad_ui_in_buf_I\[6\]\.z
*115 genblk2\[1\]\.pad_ui_in_buf_I\[7\]\.z
*116 genblk2\[1\]\.pad_ui_in_buf_I\[8\]\.z
*117 genblk2\[1\]\.ctrl_ena_buf_I\.z
*118 genblk2\[1\]\.pad_ui_in_buf_I\[9\]\.z
*119 genblk2\[1\]\.pad_uio_in_buf_I\[0\]\.z
*120 genblk2\[1\]\.pad_uio_in_buf_I\[1\]\.z
*121 genblk2\[1\]\.pad_uio_in_buf_I\[2\]\.z
*122 genblk2\[1\]\.pad_uio_in_buf_I\[3\]\.z
*123 genblk2\[1\]\.pad_uio_in_buf_I\[4\]\.z
*124 genblk2\[1\]\.pad_uio_in_buf_I\[5\]\.z
*125 genblk2\[1\]\.pad_uio_in_buf_I\[6\]\.z
*126 genblk2\[1\]\.pad_uio_in_buf_I\[7\]\.z
*127 genblk2\[1\]\.tie_guard_I\[1\]\.lo
*128 genblk2\[1\]\.sel_cnt_buf_I\[0\]\.z
*129 genblk2\[1\]\.sel_cnt_buf_I\[1\]\.z
*130 genblk2\[1\]\.sel_cnt_buf_I\[2\]\.z
*131 genblk2\[1\]\.sel_cnt_buf_I\[3\]\.z
*132 genblk2\[1\]\.sel_cnt_buf_I\[4\]\.z
*133 genblk2\[1\]\.sel_cnt_buf_I\[5\]\.z
*134 genblk2\[1\]\.sel_cnt_buf_I\[6\]\.z
*135 genblk2\[1\]\.sel_cnt_buf_I\[7\]\.z
*136 spine_top_ow[0]
*137 spine_top_ow[10]
*138 spine_top_ow[11]
*139 spine_top_ow[12]
*140 spine_top_ow[13]
*141 spine_top_ow[14]
*142 spine_top_ow[15]
*143 spine_top_ow[16]
*144 spine_top_ow[17]
*145 spine_top_ow[18]
*146 spine_top_ow[19]
*147 spine_top_ow[1]
*148 spine_top_ow[20]
*149 spine_top_ow[21]
*150 spine_top_ow[22]
*151 spine_top_ow[23]
*152 spine_top_ow[24]
*153 spine_top_ow[25]
*154 spine_top_ow[2]
*155 spine_top_ow[3]
*156 spine_top_ow[4]
*157 spine_top_ow[5]
*158 spine_top_ow[6]
*159 spine_top_ow[7]
*160 spine_top_ow[8]
*161 spine_top_ow[9]
*162 ctrl_ena_ibuf
*163 ctrl_ibuf_I\[1\]\.z
*164 ctrl_ibuf_I\[2\]\.z
*165 genblk1\[0\]\.pull
*166 genblk1\[0\]\.tbuf_pol_spine_ow_I\.tx
*167 genblk1\[0\]\.tbuf_spine_ow_I\[0\]\.a
*168 genblk1\[0\]\.tie_I\.hi
*169 genblk1\[1\]\.pull
*170 genblk1\[1\]\.tbuf_pol_spine_ow_I\.tx
*171 genblk1\[1\]\.tbuf_spine_ow_I\[0\]\.a
*172 genblk1\[1\]\.tie_I\.hi
*173 genblk2\[0\]\.ctrl_ena_buf_I\.a
*174 genblk2\[0\]\.pad_ui_in_buf_I\[0\]\.genblk1\.l
*175 genblk2\[0\]\.pad_ui_in_buf_I\[1\]\.genblk1\.l
*176 genblk2\[0\]\.pad_ui_in_buf_I\[2\]\.genblk1\.l
*177 genblk2\[0\]\.pad_ui_in_buf_I\[3\]\.genblk1\.l
*178 genblk2\[0\]\.pad_ui_in_buf_I\[4\]\.genblk1\.l
*179 genblk2\[0\]\.pad_ui_in_buf_I\[5\]\.genblk1\.l
*180 genblk2\[0\]\.pad_ui_in_buf_I\[6\]\.genblk1\.l
*181 genblk2\[0\]\.pad_ui_in_buf_I\[7\]\.genblk1\.l
*182 genblk2\[0\]\.pad_ui_in_buf_I\[8\]\.genblk1\.l
*183 genblk2\[0\]\.pad_ui_in_buf_I\[9\]\.genblk1\.l
*184 genblk2\[0\]\.pad_uio_in_buf_I\[0\]\.genblk1\.l
*185 genblk2\[0\]\.pad_uio_in_buf_I\[1\]\.genblk1\.l
*186 genblk2\[0\]\.pad_uio_in_buf_I\[2\]\.genblk1\.l
*187 genblk2\[0\]\.pad_uio_in_buf_I\[3\]\.genblk1\.l
*188 genblk2\[0\]\.pad_uio_in_buf_I\[4\]\.genblk1\.l
*189 genblk2\[0\]\.pad_uio_in_buf_I\[5\]\.genblk1\.l
*190 genblk2\[0\]\.pad_uio_in_buf_I\[6\]\.genblk1\.l
*191 genblk2\[0\]\.pad_uio_in_buf_I\[7\]\.genblk1\.l
*192 genblk2\[0\]\.sel_cnt_buf_I\[0\]\.a
*193 genblk2\[0\]\.sel_cnt_buf_I\[1\]\.a
*194 genblk2\[0\]\.sel_cnt_buf_I\[2\]\.a
*195 genblk2\[0\]\.sel_cnt_buf_I\[3\]\.a
*196 genblk2\[0\]\.sel_cnt_buf_I\[4\]\.a
*197 genblk2\[0\]\.sel_cnt_buf_I\[5\]\.a
*198 genblk2\[0\]\.sel_cnt_buf_I\[6\]\.a
*199 genblk2\[0\]\.sel_cnt_buf_I\[7\]\.a
*200 genblk2\[0\]\.sel_cnt_buf_I\[8\]\.a
*201 genblk2\[0\]\.tie_guard_I\[0\]\.hi
*202 genblk2\[0\]\.tie_guard_I\[1\]\.hi
*203 genblk2\[1\]\.ctrl_ena_buf_I\.a
*204 genblk2\[1\]\.pad_ui_in_buf_I\[0\]\.genblk1\.l
*205 genblk2\[1\]\.pad_ui_in_buf_I\[1\]\.genblk1\.l
*206 genblk2\[1\]\.pad_ui_in_buf_I\[2\]\.genblk1\.l
*207 genblk2\[1\]\.pad_ui_in_buf_I\[3\]\.genblk1\.l
*208 genblk2\[1\]\.pad_ui_in_buf_I\[4\]\.genblk1\.l
*209 genblk2\[1\]\.pad_ui_in_buf_I\[5\]\.genblk1\.l
*210 genblk2\[1\]\.pad_ui_in_buf_I\[6\]\.genblk1\.l
*211 genblk2\[1\]\.pad_ui_in_buf_I\[7\]\.genblk1\.l
*212 genblk2\[1\]\.pad_ui_in_buf_I\[8\]\.genblk1\.l
*213 genblk2\[1\]\.pad_ui_in_buf_I\[9\]\.genblk1\.l
*214 genblk2\[1\]\.pad_uio_in_buf_I\[0\]\.genblk1\.l
*215 genblk2\[1\]\.pad_uio_in_buf_I\[1\]\.genblk1\.l
*216 genblk2\[1\]\.pad_uio_in_buf_I\[2\]\.genblk1\.l
*217 genblk2\[1\]\.pad_uio_in_buf_I\[3\]\.genblk1\.l
*218 genblk2\[1\]\.pad_uio_in_buf_I\[4\]\.genblk1\.l
*219 genblk2\[1\]\.pad_uio_in_buf_I\[5\]\.genblk1\.l
*220 genblk2\[1\]\.pad_uio_in_buf_I\[6\]\.genblk1\.l
*221 genblk2\[1\]\.pad_uio_in_buf_I\[7\]\.genblk1\.l
*222 genblk2\[1\]\.tie_guard_I\[0\]\.hi
*223 genblk2\[1\]\.tie_guard_I\[1\]\.hi
*224 sel_cnt_gen\[0\]\.cnt_bit_I\.d
*225 sel_cnt_gen\[1\]\.cnt_bit_I\.d
*226 sel_cnt_gen\[2\]\.cnt_bit_I\.d
*227 sel_cnt_gen\[3\]\.cnt_bit_I\.d
*228 sel_cnt_gen\[4\]\.cnt_bit_I\.d
*229 sel_cnt_gen\[5\]\.cnt_bit_I\.d
*230 sel_cnt_gen\[5\]\.cnt_bit_I\.q
*231 sel_cnt_gen\[6\]\.cnt_bit_I\.d
*232 sel_cnt_gen\[7\]\.cnt_bit_I\.d
*233 sel_cnt_gen\[8\]\.cnt_bit_I\.d
*234 sel_cnt_gen\[9\]\.cnt_bit_I\.d
*235 side_ena0_buf_I\.a
*236 side_ena0_buf_I\.genblk1\.l
*237 side_ena1_buf_I\.genblk1\.l
*238 side_sel
*239 uio_oe_ibuf_I\[0\]\.z
*240 uio_oe_ibuf_I\[10\]\.z
*241 uio_oe_ibuf_I\[11\]\.z
*242 uio_oe_ibuf_I\[12\]\.z
*243 uio_oe_ibuf_I\[13\]\.z
*244 uio_oe_ibuf_I\[14\]\.z
*245 uio_oe_ibuf_I\[15\]\.z
*246 uio_oe_ibuf_I\[1\]\.z
*247 uio_oe_ibuf_I\[2\]\.z
*248 uio_oe_ibuf_I\[3\]\.z
*249 uio_oe_ibuf_I\[4\]\.z
*250 uio_oe_ibuf_I\[5\]\.z
*251 uio_oe_ibuf_I\[6\]\.z
*252 uio_oe_ibuf_I\[7\]\.z
*253 uio_oe_ibuf_I\[8\]\.z
*254 uio_oe_ibuf_I\[9\]\.z
*255 uio_oe_mux_I\[0\]\.x
*256 uio_oe_mux_I\[1\]\.x
*257 uio_oe_mux_I\[2\]\.x
*258 uio_oe_mux_I\[3\]\.x
*259 uio_oe_mux_I\[4\]\.x
*260 uio_oe_mux_I\[5\]\.x
*261 uio_oe_mux_I\[6\]\.x
*262 uio_oe_mux_I\[7\]\.x
*263 uio_out_ibuf_I\[0\]\.z
*264 uio_out_ibuf_I\[10\]\.z
*265 uio_out_ibuf_I\[11\]\.z
*266 uio_out_ibuf_I\[12\]\.z
*267 uio_out_ibuf_I\[13\]\.z
*268 uio_out_ibuf_I\[14\]\.z
*269 uio_out_ibuf_I\[15\]\.z
*270 uio_out_ibuf_I\[1\]\.z
*271 uio_out_ibuf_I\[2\]\.z
*272 uio_out_ibuf_I\[3\]\.z
*273 uio_out_ibuf_I\[4\]\.z
*274 uio_out_ibuf_I\[5\]\.z
*275 uio_out_ibuf_I\[6\]\.z
*276 uio_out_ibuf_I\[7\]\.z
*277 uio_out_ibuf_I\[8\]\.z
*278 uio_out_ibuf_I\[9\]\.z
*279 uio_out_mux_I\[0\]\.x
*280 uio_out_mux_I\[1\]\.x
*281 uio_out_mux_I\[2\]\.x
*282 uio_out_mux_I\[3\]\.x
*283 uio_out_mux_I\[4\]\.x
*284 uio_out_mux_I\[5\]\.x
*285 uio_out_mux_I\[6\]\.x
*286 uio_out_mux_I\[7\]\.x
*287 uo_out_ibuf_I\[0\]\.z
*288 uo_out_ibuf_I\[10\]\.z
*289 uo_out_ibuf_I\[11\]\.z
*290 uo_out_ibuf_I\[12\]\.z
*291 uo_out_ibuf_I\[13\]\.z
*292 uo_out_ibuf_I\[14\]\.z
*293 uo_out_ibuf_I\[15\]\.z
*294 uo_out_ibuf_I\[1\]\.z
*295 uo_out_ibuf_I\[2\]\.z
*296 uo_out_ibuf_I\[3\]\.z
*297 uo_out_ibuf_I\[4\]\.z
*298 uo_out_ibuf_I\[5\]\.z
*299 uo_out_ibuf_I\[6\]\.z
*300 uo_out_ibuf_I\[7\]\.z
*301 uo_out_ibuf_I\[8\]\.z
*302 uo_out_ibuf_I\[9\]\.z
*303 uo_out_mux_I\[0\]\.x
*304 uo_out_mux_I\[1\]\.x
*305 uo_out_mux_I\[2\]\.x
*306 uo_out_mux_I\[3\]\.x
*307 uo_out_mux_I\[4\]\.x
*308 uo_out_mux_I\[5\]\.x
*309 uo_out_mux_I\[6\]\.x
*310 uo_out_mux_I\[7\]\.x
*311 FILLER_0_109
*312 FILLER_0_111
*313 FILLER_0_113
*314 FILLER_0_125
*315 FILLER_0_137
*316 FILLER_0_139
*317 FILLER_0_141
*318 FILLER_0_15
*319 FILLER_0_153
*320 FILLER_0_165
*321 FILLER_0_167
*322 FILLER_0_169
*323 FILLER_0_181
*324 FILLER_0_193
*325 FILLER_0_195
*326 FILLER_0_197
*327 FILLER_0_209
*328 FILLER_0_221
*329 FILLER_0_223
*330 FILLER_0_225
*331 FILLER_0_237
*332 FILLER_0_251
*333 FILLER_0_253
*334 FILLER_0_27
*335 FILLER_0_272
*336 FILLER_0_281
*337 FILLER_0_29
*338 FILLER_0_293
*339 FILLER_0_3
*340 FILLER_0_307
*341 FILLER_0_309
*342 FILLER_0_321
*343 FILLER_0_333
*344 FILLER_0_335
*345 FILLER_0_337
*346 FILLER_0_349
*347 FILLER_0_361
*348 FILLER_0_363
*349 FILLER_0_365
*350 FILLER_0_377
*351 FILLER_0_41
*352 FILLER_0_53
*353 FILLER_0_55
*354 FILLER_0_57
*355 FILLER_0_69
*356 FILLER_0_81
*357 FILLER_0_83
*358 FILLER_0_85
*359 FILLER_0_97
*360 FILLER_10_109
*361 FILLER_10_121
*362 FILLER_10_133
*363 FILLER_10_137
*364 FILLER_10_139
*365 FILLER_10_141
*366 FILLER_10_15
*367 FILLER_10_153
*368 FILLER_10_165
*369 FILLER_10_169
*370 FILLER_10_171
*371 FILLER_10_184
*372 FILLER_10_197
*373 FILLER_10_201
*374 FILLER_10_227
*375 FILLER_10_239
*376 FILLER_10_251
*377 FILLER_10_253
*378 FILLER_10_257
*379 FILLER_10_27
*380 FILLER_10_283
*381 FILLER_10_29
*382 FILLER_10_295
*383 FILLER_10_3
*384 FILLER_10_307
*385 FILLER_10_309
*386 FILLER_10_315
*387 FILLER_10_327
*388 FILLER_10_339
*389 FILLER_10_347
*390 FILLER_10_350
*391 FILLER_10_358
*392 FILLER_10_362
*393 FILLER_10_365
*394 FILLER_10_369
*395 FILLER_10_372
*396 FILLER_10_384
*397 FILLER_10_41
*398 FILLER_10_53
*399 FILLER_10_65
*400 FILLER_10_77
*401 FILLER_10_81
*402 FILLER_10_83
*403 FILLER_10_85
*404 FILLER_10_97
*405 FILLER_11_105
*406 FILLER_11_109
*407 FILLER_11_111
*408 FILLER_11_113
*409 FILLER_11_125
*410 FILLER_11_137
*411 FILLER_11_149
*412 FILLER_11_15
*413 FILLER_11_161
*414 FILLER_11_165
*415 FILLER_11_167
*416 FILLER_11_169
*417 FILLER_11_173
*418 FILLER_11_175
*419 FILLER_11_182
*420 FILLER_11_194
*421 FILLER_11_206
*422 FILLER_11_218
*423 FILLER_11_222
*424 FILLER_11_225
*425 FILLER_11_237
*426 FILLER_11_249
*427 FILLER_11_261
*428 FILLER_11_265
*429 FILLER_11_27
*430 FILLER_11_279
*431 FILLER_11_281
*432 FILLER_11_293
*433 FILLER_11_3
*434 FILLER_11_305
*435 FILLER_11_317
*436 FILLER_11_329
*437 FILLER_11_333
*438 FILLER_11_335
*439 FILLER_11_337
*440 FILLER_11_349
*441 FILLER_11_361
*442 FILLER_11_373
*443 FILLER_11_39
*444 FILLER_11_51
*445 FILLER_11_55
*446 FILLER_11_57
*447 FILLER_11_69
*448 FILLER_11_81
*449 FILLER_11_93
*450 FILLER_12_109
*451 FILLER_12_121
*452 FILLER_12_133
*453 FILLER_12_137
*454 FILLER_12_139
*455 FILLER_12_141
*456 FILLER_12_15
*457 FILLER_12_153
*458 FILLER_12_165
*459 FILLER_12_177
*460 FILLER_12_189
*461 FILLER_12_193
*462 FILLER_12_195
*463 FILLER_12_197
*464 FILLER_12_209
*465 FILLER_12_221
*466 FILLER_12_246
*467 FILLER_12_250
*468 FILLER_12_253
*469 FILLER_12_265
*470 FILLER_12_27
*471 FILLER_12_279
*472 FILLER_12_29
*473 FILLER_12_291
*474 FILLER_12_3
*475 FILLER_12_303
*476 FILLER_12_307
*477 FILLER_12_309
*478 FILLER_12_321
*479 FILLER_12_333
*480 FILLER_12_345
*481 FILLER_12_357
*482 FILLER_12_361
*483 FILLER_12_363
*484 FILLER_12_365
*485 FILLER_12_377
*486 FILLER_12_41
*487 FILLER_12_53
*488 FILLER_12_65
*489 FILLER_12_77
*490 FILLER_12_81
*491 FILLER_12_83
*492 FILLER_12_85
*493 FILLER_12_97
*494 FILLER_13_105
*495 FILLER_13_109
*496 FILLER_13_111
*497 FILLER_13_113
*498 FILLER_13_125
*499 FILLER_13_137
*500 FILLER_13_149
*501 FILLER_13_15
*502 FILLER_13_161
*503 FILLER_13_165
*504 FILLER_13_167
*505 FILLER_13_169
*506 FILLER_13_181
*507 FILLER_13_193
*508 FILLER_13_205
*509 FILLER_13_217
*510 FILLER_13_221
*511 FILLER_13_223
*512 FILLER_13_225
*513 FILLER_13_233
*514 FILLER_13_235
*515 FILLER_13_260
*516 FILLER_13_264
*517 FILLER_13_27
*518 FILLER_13_278
*519 FILLER_13_281
*520 FILLER_13_293
*521 FILLER_13_3
*522 FILLER_13_305
*523 FILLER_13_317
*524 FILLER_13_329
*525 FILLER_13_333
*526 FILLER_13_335
*527 FILLER_13_337
*528 FILLER_13_349
*529 FILLER_13_361
*530 FILLER_13_373
*531 FILLER_13_39
*532 FILLER_13_51
*533 FILLER_13_55
*534 FILLER_13_57
*535 FILLER_13_69
*536 FILLER_13_81
*537 FILLER_13_93
*538 FILLER_14_109
*539 FILLER_14_121
*540 FILLER_14_133
*541 FILLER_14_137
*542 FILLER_14_139
*543 FILLER_14_141
*544 FILLER_14_15
*545 FILLER_14_153
*546 FILLER_14_165
*547 FILLER_14_177
*548 FILLER_14_189
*549 FILLER_14_193
*550 FILLER_14_195
*551 FILLER_14_197
*552 FILLER_14_209
*553 FILLER_14_221
*554 FILLER_14_233
*555 FILLER_14_245
*556 FILLER_14_249
*557 FILLER_14_251
*558 FILLER_14_27
*559 FILLER_14_277
*560 FILLER_14_289
*561 FILLER_14_29
*562 FILLER_14_3
*563 FILLER_14_301
*564 FILLER_14_305
*565 FILLER_14_307
*566 FILLER_14_309
*567 FILLER_14_321
*568 FILLER_14_333
*569 FILLER_14_345
*570 FILLER_14_357
*571 FILLER_14_361
*572 FILLER_14_363
*573 FILLER_14_365
*574 FILLER_14_377
*575 FILLER_14_41
*576 FILLER_14_53
*577 FILLER_14_65
*578 FILLER_14_77
*579 FILLER_14_81
*580 FILLER_14_83
*581 FILLER_14_85
*582 FILLER_14_97
*583 FILLER_15_105
*584 FILLER_15_109
*585 FILLER_15_111
*586 FILLER_15_113
*587 FILLER_15_125
*588 FILLER_15_137
*589 FILLER_15_149
*590 FILLER_15_15
*591 FILLER_15_161
*592 FILLER_15_165
*593 FILLER_15_167
*594 FILLER_15_169
*595 FILLER_15_181
*596 FILLER_15_193
*597 FILLER_15_205
*598 FILLER_15_217
*599 FILLER_15_221
*600 FILLER_15_223
*601 FILLER_15_225
*602 FILLER_15_237
*603 FILLER_15_269
*604 FILLER_15_27
*605 FILLER_15_277
*606 FILLER_15_279
*607 FILLER_15_281
*608 FILLER_15_293
*609 FILLER_15_3
*610 FILLER_15_305
*611 FILLER_15_317
*612 FILLER_15_329
*613 FILLER_15_333
*614 FILLER_15_335
*615 FILLER_15_337
*616 FILLER_15_349
*617 FILLER_15_361
*618 FILLER_15_373
*619 FILLER_15_39
*620 FILLER_15_51
*621 FILLER_15_55
*622 FILLER_15_57
*623 FILLER_15_69
*624 FILLER_15_81
*625 FILLER_15_93
*626 FILLER_16_109
*627 FILLER_16_121
*628 FILLER_16_133
*629 FILLER_16_137
*630 FILLER_16_139
*631 FILLER_16_141
*632 FILLER_16_15
*633 FILLER_16_153
*634 FILLER_16_165
*635 FILLER_16_177
*636 FILLER_16_189
*637 FILLER_16_193
*638 FILLER_16_195
*639 FILLER_16_197
*640 FILLER_16_209
*641 FILLER_16_221
*642 FILLER_16_233
*643 FILLER_16_245
*644 FILLER_16_249
*645 FILLER_16_251
*646 FILLER_16_253
*647 FILLER_16_265
*648 FILLER_16_27
*649 FILLER_16_277
*650 FILLER_16_289
*651 FILLER_16_29
*652 FILLER_16_3
*653 FILLER_16_301
*654 FILLER_16_305
*655 FILLER_16_307
*656 FILLER_16_309
*657 FILLER_16_321
*658 FILLER_16_333
*659 FILLER_16_345
*660 FILLER_16_357
*661 FILLER_16_361
*662 FILLER_16_363
*663 FILLER_16_365
*664 FILLER_16_377
*665 FILLER_16_41
*666 FILLER_16_53
*667 FILLER_16_65
*668 FILLER_16_77
*669 FILLER_16_81
*670 FILLER_16_83
*671 FILLER_16_85
*672 FILLER_16_97
*673 FILLER_17_105
*674 FILLER_17_109
*675 FILLER_17_111
*676 FILLER_17_113
*677 FILLER_17_125
*678 FILLER_17_137
*679 FILLER_17_149
*680 FILLER_17_15
*681 FILLER_17_161
*682 FILLER_17_165
*683 FILLER_17_167
*684 FILLER_17_169
*685 FILLER_17_181
*686 FILLER_17_193
*687 FILLER_17_205
*688 FILLER_17_217
*689 FILLER_17_221
*690 FILLER_17_223
*691 FILLER_17_225
*692 FILLER_17_237
*693 FILLER_17_249
*694 FILLER_17_261
*695 FILLER_17_27
*696 FILLER_17_273
*697 FILLER_17_277
*698 FILLER_17_279
*699 FILLER_17_281
*700 FILLER_17_293
*701 FILLER_17_3
*702 FILLER_17_305
*703 FILLER_17_317
*704 FILLER_17_329
*705 FILLER_17_333
*706 FILLER_17_335
*707 FILLER_17_337
*708 FILLER_17_349
*709 FILLER_17_361
*710 FILLER_17_373
*711 FILLER_17_39
*712 FILLER_17_51
*713 FILLER_17_55
*714 FILLER_17_57
*715 FILLER_17_69
*716 FILLER_17_81
*717 FILLER_17_93
*718 FILLER_18_109
*719 FILLER_18_121
*720 FILLER_18_133
*721 FILLER_18_137
*722 FILLER_18_139
*723 FILLER_18_141
*724 FILLER_18_15
*725 FILLER_18_153
*726 FILLER_18_165
*727 FILLER_18_177
*728 FILLER_18_189
*729 FILLER_18_193
*730 FILLER_18_195
*731 FILLER_18_197
*732 FILLER_18_209
*733 FILLER_18_221
*734 FILLER_18_233
*735 FILLER_18_245
*736 FILLER_18_249
*737 FILLER_18_251
*738 FILLER_18_253
*739 FILLER_18_265
*740 FILLER_18_27
*741 FILLER_18_277
*742 FILLER_18_289
*743 FILLER_18_29
*744 FILLER_18_3
*745 FILLER_18_301
*746 FILLER_18_305
*747 FILLER_18_307
*748 FILLER_18_309
*749 FILLER_18_321
*750 FILLER_18_333
*751 FILLER_18_345
*752 FILLER_18_357
*753 FILLER_18_361
*754 FILLER_18_363
*755 FILLER_18_365
*756 FILLER_18_377
*757 FILLER_18_41
*758 FILLER_18_53
*759 FILLER_18_65
*760 FILLER_18_77
*761 FILLER_18_81
*762 FILLER_18_83
*763 FILLER_18_85
*764 FILLER_18_97
*765 FILLER_19_105
*766 FILLER_19_109
*767 FILLER_19_111
*768 FILLER_19_113
*769 FILLER_19_125
*770 FILLER_19_137
*771 FILLER_19_149
*772 FILLER_19_15
*773 FILLER_19_161
*774 FILLER_19_165
*775 FILLER_19_167
*776 FILLER_19_169
*777 FILLER_19_181
*778 FILLER_19_193
*779 FILLER_19_205
*780 FILLER_19_217
*781 FILLER_19_221
*782 FILLER_19_223
*783 FILLER_19_225
*784 FILLER_19_237
*785 FILLER_19_249
*786 FILLER_19_261
*787 FILLER_19_265
*788 FILLER_19_267
*789 FILLER_19_27
*790 FILLER_19_281
*791 FILLER_19_293
*792 FILLER_19_3
*793 FILLER_19_305
*794 FILLER_19_317
*795 FILLER_19_329
*796 FILLER_19_333
*797 FILLER_19_335
*798 FILLER_19_337
*799 FILLER_19_349
*800 FILLER_19_361
*801 FILLER_19_373
*802 FILLER_19_39
*803 FILLER_19_51
*804 FILLER_19_55
*805 FILLER_19_57
*806 FILLER_19_69
*807 FILLER_19_81
*808 FILLER_19_93
*809 FILLER_1_102
*810 FILLER_1_110
*811 FILLER_1_113
*812 FILLER_1_125
*813 FILLER_1_129
*814 FILLER_1_131
*815 FILLER_1_15
*816 FILLER_1_150
*817 FILLER_1_160
*818 FILLER_1_169
*819 FILLER_1_173
*820 FILLER_1_178
*821 FILLER_1_193
*822 FILLER_1_205
*823 FILLER_1_217
*824 FILLER_1_221
*825 FILLER_1_223
*826 FILLER_1_261
*827 FILLER_1_27
*828 FILLER_1_275
*829 FILLER_1_279
*830 FILLER_1_281
*831 FILLER_1_3
*832 FILLER_1_307
*833 FILLER_1_311
*834 FILLER_1_323
*835 FILLER_1_335
*836 FILLER_1_337
*837 FILLER_1_349
*838 FILLER_1_361
*839 FILLER_1_373
*840 FILLER_1_39
*841 FILLER_1_41
*842 FILLER_1_45
*843 FILLER_1_48
*844 FILLER_1_57
*845 FILLER_1_69
*846 FILLER_1_73
*847 FILLER_1_75
*848 FILLER_20_109
*849 FILLER_20_121
*850 FILLER_20_133
*851 FILLER_20_137
*852 FILLER_20_139
*853 FILLER_20_141
*854 FILLER_20_15
*855 FILLER_20_153
*856 FILLER_20_165
*857 FILLER_20_177
*858 FILLER_20_189
*859 FILLER_20_193
*860 FILLER_20_195
*861 FILLER_20_197
*862 FILLER_20_209
*863 FILLER_20_221
*864 FILLER_20_233
*865 FILLER_20_245
*866 FILLER_20_249
*867 FILLER_20_251
*868 FILLER_20_253
*869 FILLER_20_265
*870 FILLER_20_27
*871 FILLER_20_277
*872 FILLER_20_289
*873 FILLER_20_29
*874 FILLER_20_3
*875 FILLER_20_301
*876 FILLER_20_305
*877 FILLER_20_307
*878 FILLER_20_309
*879 FILLER_20_321
*880 FILLER_20_333
*881 FILLER_20_345
*882 FILLER_20_357
*883 FILLER_20_361
*884 FILLER_20_363
*885 FILLER_20_365
*886 FILLER_20_377
*887 FILLER_20_41
*888 FILLER_20_53
*889 FILLER_20_65
*890 FILLER_20_77
*891 FILLER_20_81
*892 FILLER_20_83
*893 FILLER_20_85
*894 FILLER_20_97
*895 FILLER_21_105
*896 FILLER_21_109
*897 FILLER_21_111
*898 FILLER_21_113
*899 FILLER_21_125
*900 FILLER_21_137
*901 FILLER_21_149
*902 FILLER_21_15
*903 FILLER_21_161
*904 FILLER_21_165
*905 FILLER_21_167
*906 FILLER_21_169
*907 FILLER_21_181
*908 FILLER_21_193
*909 FILLER_21_205
*910 FILLER_21_217
*911 FILLER_21_221
*912 FILLER_21_223
*913 FILLER_21_225
*914 FILLER_21_237
*915 FILLER_21_249
*916 FILLER_21_261
*917 FILLER_21_27
*918 FILLER_21_273
*919 FILLER_21_277
*920 FILLER_21_279
*921 FILLER_21_281
*922 FILLER_21_293
*923 FILLER_21_3
*924 FILLER_21_305
*925 FILLER_21_317
*926 FILLER_21_329
*927 FILLER_21_333
*928 FILLER_21_335
*929 FILLER_21_337
*930 FILLER_21_349
*931 FILLER_21_361
*932 FILLER_21_373
*933 FILLER_21_39
*934 FILLER_21_51
*935 FILLER_21_55
*936 FILLER_21_57
*937 FILLER_21_69
*938 FILLER_21_81
*939 FILLER_21_93
*940 FILLER_22_111
*941 FILLER_22_123
*942 FILLER_22_135
*943 FILLER_22_139
*944 FILLER_22_141
*945 FILLER_22_15
*946 FILLER_22_153
*947 FILLER_22_165
*948 FILLER_22_177
*949 FILLER_22_189
*950 FILLER_22_193
*951 FILLER_22_195
*952 FILLER_22_197
*953 FILLER_22_209
*954 FILLER_22_221
*955 FILLER_22_233
*956 FILLER_22_245
*957 FILLER_22_249
*958 FILLER_22_251
*959 FILLER_22_253
*960 FILLER_22_265
*961 FILLER_22_27
*962 FILLER_22_277
*963 FILLER_22_289
*964 FILLER_22_29
*965 FILLER_22_3
*966 FILLER_22_301
*967 FILLER_22_305
*968 FILLER_22_307
*969 FILLER_22_309
*970 FILLER_22_321
*971 FILLER_22_333
*972 FILLER_22_345
*973 FILLER_22_357
*974 FILLER_22_361
*975 FILLER_22_363
*976 FILLER_22_365
*977 FILLER_22_377
*978 FILLER_22_41
*979 FILLER_22_53
*980 FILLER_22_65
*981 FILLER_22_77
*982 FILLER_22_81
*983 FILLER_22_83
*984 FILLER_22_85
*985 FILLER_22_97
*986 FILLER_23_105
*987 FILLER_23_109
*988 FILLER_23_111
*989 FILLER_23_113
*990 FILLER_23_125
*991 FILLER_23_137
*992 FILLER_23_149
*993 FILLER_23_15
*994 FILLER_23_161
*995 FILLER_23_165
*996 FILLER_23_167
*997 FILLER_23_169
*998 FILLER_23_181
*999 FILLER_23_193
*1000 FILLER_23_205
*1001 FILLER_23_217
*1002 FILLER_23_221
*1003 FILLER_23_223
*1004 FILLER_23_225
*1005 FILLER_23_237
*1006 FILLER_23_249
*1007 FILLER_23_261
*1008 FILLER_23_265
*1009 FILLER_23_27
*1010 FILLER_23_278
*1011 FILLER_23_281
*1012 FILLER_23_293
*1013 FILLER_23_3
*1014 FILLER_23_305
*1015 FILLER_23_317
*1016 FILLER_23_329
*1017 FILLER_23_333
*1018 FILLER_23_335
*1019 FILLER_23_337
*1020 FILLER_23_349
*1021 FILLER_23_361
*1022 FILLER_23_373
*1023 FILLER_23_39
*1024 FILLER_23_51
*1025 FILLER_23_55
*1026 FILLER_23_57
*1027 FILLER_23_69
*1028 FILLER_23_81
*1029 FILLER_23_93
*1030 FILLER_24_101
*1031 FILLER_24_103
*1032 FILLER_24_106
*1033 FILLER_24_110
*1034 FILLER_24_118
*1035 FILLER_24_130
*1036 FILLER_24_134
*1037 FILLER_24_138
*1038 FILLER_24_141
*1039 FILLER_24_15
*1040 FILLER_24_153
*1041 FILLER_24_165
*1042 FILLER_24_177
*1043 FILLER_24_189
*1044 FILLER_24_193
*1045 FILLER_24_195
*1046 FILLER_24_197
*1047 FILLER_24_209
*1048 FILLER_24_221
*1049 FILLER_24_233
*1050 FILLER_24_245
*1051 FILLER_24_249
*1052 FILLER_24_251
*1053 FILLER_24_253
*1054 FILLER_24_265
*1055 FILLER_24_27
*1056 FILLER_24_277
*1057 FILLER_24_289
*1058 FILLER_24_29
*1059 FILLER_24_3
*1060 FILLER_24_301
*1061 FILLER_24_305
*1062 FILLER_24_307
*1063 FILLER_24_309
*1064 FILLER_24_321
*1065 FILLER_24_333
*1066 FILLER_24_345
*1067 FILLER_24_357
*1068 FILLER_24_361
*1069 FILLER_24_363
*1070 FILLER_24_365
*1071 FILLER_24_377
*1072 FILLER_24_41
*1073 FILLER_24_53
*1074 FILLER_24_65
*1075 FILLER_24_77
*1076 FILLER_24_81
*1077 FILLER_24_83
*1078 FILLER_24_85
*1079 FILLER_24_97
*1080 FILLER_25_101
*1081 FILLER_25_109
*1082 FILLER_25_111
*1083 FILLER_25_113
*1084 FILLER_25_125
*1085 FILLER_25_129
*1086 FILLER_25_132
*1087 FILLER_25_140
*1088 FILLER_25_146
*1089 FILLER_25_15
*1090 FILLER_25_158
*1091 FILLER_25_166
*1092 FILLER_25_169
*1093 FILLER_25_181
*1094 FILLER_25_193
*1095 FILLER_25_205
*1096 FILLER_25_217
*1097 FILLER_25_221
*1098 FILLER_25_223
*1099 FILLER_25_225
*1100 FILLER_25_237
*1101 FILLER_25_249
*1102 FILLER_25_261
*1103 FILLER_25_27
*1104 FILLER_25_273
*1105 FILLER_25_277
*1106 FILLER_25_279
*1107 FILLER_25_281
*1108 FILLER_25_293
*1109 FILLER_25_3
*1110 FILLER_25_305
*1111 FILLER_25_317
*1112 FILLER_25_329
*1113 FILLER_25_333
*1114 FILLER_25_335
*1115 FILLER_25_337
*1116 FILLER_25_349
*1117 FILLER_25_361
*1118 FILLER_25_373
*1119 FILLER_25_39
*1120 FILLER_25_51
*1121 FILLER_25_55
*1122 FILLER_25_57
*1123 FILLER_25_69
*1124 FILLER_25_83
*1125 FILLER_25_89
*1126 FILLER_26_100
*1127 FILLER_26_104
*1128 FILLER_26_106
*1129 FILLER_26_111
*1130 FILLER_26_116
*1131 FILLER_26_124
*1132 FILLER_26_127
*1133 FILLER_26_139
*1134 FILLER_26_144
*1135 FILLER_26_146
*1136 FILLER_26_15
*1137 FILLER_26_151
*1138 FILLER_26_155
*1139 FILLER_26_159
*1140 FILLER_26_169
*1141 FILLER_26_181
*1142 FILLER_26_194
*1143 FILLER_26_197
*1144 FILLER_26_209
*1145 FILLER_26_221
*1146 FILLER_26_233
*1147 FILLER_26_245
*1148 FILLER_26_249
*1149 FILLER_26_251
*1150 FILLER_26_253
*1151 FILLER_26_265
*1152 FILLER_26_27
*1153 FILLER_26_277
*1154 FILLER_26_289
*1155 FILLER_26_29
*1156 FILLER_26_3
*1157 FILLER_26_301
*1158 FILLER_26_305
*1159 FILLER_26_307
*1160 FILLER_26_309
*1161 FILLER_26_321
*1162 FILLER_26_325
*1163 FILLER_26_327
*1164 FILLER_26_330
*1165 FILLER_26_334
*1166 FILLER_26_346
*1167 FILLER_26_358
*1168 FILLER_26_362
*1169 FILLER_26_365
*1170 FILLER_26_377
*1171 FILLER_26_41
*1172 FILLER_26_53
*1173 FILLER_26_65
*1174 FILLER_26_77
*1175 FILLER_26_81
*1176 FILLER_26_83
*1177 FILLER_26_85
*1178 FILLER_26_97
*1179 FILLER_27_101
*1180 FILLER_27_106
*1181 FILLER_27_110
*1182 FILLER_27_113
*1183 FILLER_27_125
*1184 FILLER_27_133
*1185 FILLER_27_137
*1186 FILLER_27_147
*1187 FILLER_27_15
*1188 FILLER_27_156
*1189 FILLER_27_158
*1190 FILLER_27_164
*1191 FILLER_27_172
*1192 FILLER_27_184
*1193 FILLER_27_196
*1194 FILLER_27_208
*1195 FILLER_27_220
*1196 FILLER_27_225
*1197 FILLER_27_237
*1198 FILLER_27_249
*1199 FILLER_27_261
*1200 FILLER_27_27
*1201 FILLER_27_273
*1202 FILLER_27_277
*1203 FILLER_27_279
*1204 FILLER_27_281
*1205 FILLER_27_293
*1206 FILLER_27_3
*1207 FILLER_27_305
*1208 FILLER_27_317
*1209 FILLER_27_329
*1210 FILLER_27_333
*1211 FILLER_27_335
*1212 FILLER_27_339
*1213 FILLER_27_351
*1214 FILLER_27_354
*1215 FILLER_27_366
*1216 FILLER_27_378
*1217 FILLER_27_382
*1218 FILLER_27_384
*1219 FILLER_27_39
*1220 FILLER_27_51
*1221 FILLER_27_55
*1222 FILLER_27_57
*1223 FILLER_27_69
*1224 FILLER_27_73
*1225 FILLER_27_80
*1226 FILLER_27_86
*1227 FILLER_27_94
*1228 FILLER_27_96
*1229 FILLER_27_99
*1230 FILLER_28_101
*1231 FILLER_28_115
*1232 FILLER_28_127
*1233 FILLER_28_131
*1234 FILLER_28_139
*1235 FILLER_28_141
*1236 FILLER_28_145
*1237 FILLER_28_147
*1238 FILLER_28_15
*1239 FILLER_28_151
*1240 FILLER_28_158
*1241 FILLER_28_170
*1242 FILLER_28_182
*1243 FILLER_28_194
*1244 FILLER_28_197
*1245 FILLER_28_209
*1246 FILLER_28_221
*1247 FILLER_28_233
*1248 FILLER_28_245
*1249 FILLER_28_249
*1250 FILLER_28_251
*1251 FILLER_28_253
*1252 FILLER_28_260
*1253 FILLER_28_268
*1254 FILLER_28_27
*1255 FILLER_28_280
*1256 FILLER_28_29
*1257 FILLER_28_292
*1258 FILLER_28_3
*1259 FILLER_28_304
*1260 FILLER_28_309
*1261 FILLER_28_321
*1262 FILLER_28_333
*1263 FILLER_28_337
*1264 FILLER_28_339
*1265 FILLER_28_342
*1266 FILLER_28_354
*1267 FILLER_28_362
*1268 FILLER_28_365
*1269 FILLER_28_377
*1270 FILLER_28_41
*1271 FILLER_28_53
*1272 FILLER_28_65
*1273 FILLER_28_67
*1274 FILLER_28_76
*1275 FILLER_28_85
*1276 FILLER_28_97
*1277 FILLER_29_102
*1278 FILLER_29_104
*1279 FILLER_29_109
*1280 FILLER_29_111
*1281 FILLER_29_113
*1282 FILLER_29_119
*1283 FILLER_29_131
*1284 FILLER_29_133
*1285 FILLER_29_143
*1286 FILLER_29_15
*1287 FILLER_29_155
*1288 FILLER_29_171
*1289 FILLER_29_183
*1290 FILLER_29_195
*1291 FILLER_29_207
*1292 FILLER_29_219
*1293 FILLER_29_223
*1294 FILLER_29_231
*1295 FILLER_29_241
*1296 FILLER_29_245
*1297 FILLER_29_253
*1298 FILLER_29_265
*1299 FILLER_29_27
*1300 FILLER_29_277
*1301 FILLER_29_279
*1302 FILLER_29_293
*1303 FILLER_29_3
*1304 FILLER_29_305
*1305 FILLER_29_317
*1306 FILLER_29_329
*1307 FILLER_29_333
*1308 FILLER_29_335
*1309 FILLER_29_337
*1310 FILLER_29_341
*1311 FILLER_29_343
*1312 FILLER_29_346
*1313 FILLER_29_350
*1314 FILLER_29_362
*1315 FILLER_29_374
*1316 FILLER_29_382
*1317 FILLER_29_384
*1318 FILLER_29_39
*1319 FILLER_29_51
*1320 FILLER_29_55
*1321 FILLER_29_57
*1322 FILLER_29_72
*1323 FILLER_29_85
*1324 FILLER_29_89
*1325 FILLER_29_94
*1326 FILLER_2_141
*1327 FILLER_2_15
*1328 FILLER_2_167
*1329 FILLER_2_179
*1330 FILLER_2_183
*1331 FILLER_2_209
*1332 FILLER_2_221
*1333 FILLER_2_253
*1334 FILLER_2_255
*1335 FILLER_2_27
*1336 FILLER_2_286
*1337 FILLER_2_288
*1338 FILLER_2_3
*1339 FILLER_2_301
*1340 FILLER_2_305
*1341 FILLER_2_307
*1342 FILLER_2_309
*1343 FILLER_2_321
*1344 FILLER_2_333
*1345 FILLER_2_345
*1346 FILLER_2_357
*1347 FILLER_2_361
*1348 FILLER_2_363
*1349 FILLER_2_365
*1350 FILLER_2_377
*1351 FILLER_2_43
*1352 FILLER_2_55
*1353 FILLER_2_67
*1354 FILLER_2_75
*1355 FILLER_2_88
*1356 FILLER_30_109
*1357 FILLER_30_121
*1358 FILLER_30_133
*1359 FILLER_30_137
*1360 FILLER_30_139
*1361 FILLER_30_141
*1362 FILLER_30_157
*1363 FILLER_30_161
*1364 FILLER_30_165
*1365 FILLER_30_169
*1366 FILLER_30_171
*1367 FILLER_30_175
*1368 FILLER_30_179
*1369 FILLER_30_181
*1370 FILLER_30_197
*1371 FILLER_30_209
*1372 FILLER_30_221
*1373 FILLER_30_229
*1374 FILLER_30_236
*1375 FILLER_30_24
*1376 FILLER_30_265
*1377 FILLER_30_277
*1378 FILLER_30_289
*1379 FILLER_30_3
*1380 FILLER_30_301
*1381 FILLER_30_305
*1382 FILLER_30_307
*1383 FILLER_30_309
*1384 FILLER_30_321
*1385 FILLER_30_333
*1386 FILLER_30_345
*1387 FILLER_30_357
*1388 FILLER_30_361
*1389 FILLER_30_363
*1390 FILLER_30_365
*1391 FILLER_30_377
*1392 FILLER_30_43
*1393 FILLER_30_55
*1394 FILLER_30_7
*1395 FILLER_30_77
*1396 FILLER_30_79
*1397 FILLER_30_85
*1398 FILLER_30_9
*1399 FILLER_30_97
*1400 FILLER_31_121
*1401 FILLER_31_129
*1402 FILLER_31_139
*1403 FILLER_31_152
*1404 FILLER_31_177
*1405 FILLER_31_185
*1406 FILLER_31_189
*1407 FILLER_31_201
*1408 FILLER_31_213
*1409 FILLER_31_221
*1410 FILLER_31_223
*1411 FILLER_31_225
*1412 FILLER_31_238
*1413 FILLER_31_24
*1414 FILLER_31_270
*1415 FILLER_31_278
*1416 FILLER_31_281
*1417 FILLER_31_293
*1418 FILLER_31_3
*1419 FILLER_31_305
*1420 FILLER_31_317
*1421 FILLER_31_329
*1422 FILLER_31_333
*1423 FILLER_31_335
*1424 FILLER_31_337
*1425 FILLER_31_349
*1426 FILLER_31_36
*1427 FILLER_31_361
*1428 FILLER_31_373
*1429 FILLER_31_48
*1430 FILLER_31_57
*1431 FILLER_31_61
*1432 FILLER_31_63
*1433 FILLER_31_7
*1434 FILLER_31_73
*1435 FILLER_31_75
*1436 FILLER_31_89
*1437 FILLER_31_9
*1438 FILLER_31_97
*1439 FILLER_32_103
*1440 FILLER_32_105
*1441 FILLER_32_11
*1442 FILLER_32_115
*1443 FILLER_32_127
*1444 FILLER_32_13
*1445 FILLER_32_139
*1446 FILLER_32_141
*1447 FILLER_32_176
*1448 FILLER_32_188
*1449 FILLER_32_197
*1450 FILLER_32_209
*1451 FILLER_32_221
*1452 FILLER_32_229
*1453 FILLER_32_242
*1454 FILLER_32_250
*1455 FILLER_32_253
*1456 FILLER_32_265
*1457 FILLER_32_277
*1458 FILLER_32_289
*1459 FILLER_32_3
*1460 FILLER_32_302
*1461 FILLER_32_306
*1462 FILLER_32_323
*1463 FILLER_32_335
*1464 FILLER_32_347
*1465 FILLER_32_359
*1466 FILLER_32_363
*1467 FILLER_32_365
*1468 FILLER_32_377
*1469 FILLER_32_43
*1470 FILLER_32_55
*1471 FILLER_32_67
*1472 FILLER_32_81
*1473 FILLER_32_83
*1474 FILLER_32_85
*1475 FILLER_33_101
*1476 FILLER_33_109
*1477 FILLER_33_111
*1478 FILLER_33_113
*1479 FILLER_33_125
*1480 FILLER_33_137
*1481 FILLER_33_149
*1482 FILLER_33_15
*1483 FILLER_33_153
*1484 FILLER_33_156
*1485 FILLER_33_160
*1486 FILLER_33_164
*1487 FILLER_33_171
*1488 FILLER_33_183
*1489 FILLER_33_195
*1490 FILLER_33_207
*1491 FILLER_33_219
*1492 FILLER_33_223
*1493 FILLER_33_225
*1494 FILLER_33_233
*1495 FILLER_33_235
*1496 FILLER_33_248
*1497 FILLER_33_260
*1498 FILLER_33_264
*1499 FILLER_33_277
*1500 FILLER_33_279
*1501 FILLER_33_281
*1502 FILLER_33_3
*1503 FILLER_33_30
*1504 FILLER_33_307
*1505 FILLER_33_319
*1506 FILLER_33_331
*1507 FILLER_33_335
*1508 FILLER_33_337
*1509 FILLER_33_349
*1510 FILLER_33_361
*1511 FILLER_33_373
*1512 FILLER_33_42
*1513 FILLER_33_54
*1514 FILLER_33_57
*1515 FILLER_33_69
*1516 FILLER_33_73
*1517 FILLER_33_77
*1518 FILLER_33_89
*1519 FILLER_34_109
*1520 FILLER_34_121
*1521 FILLER_34_141
*1522 FILLER_34_15
*1523 FILLER_34_153
*1524 FILLER_34_181
*1525 FILLER_34_193
*1526 FILLER_34_195
*1527 FILLER_34_197
*1528 FILLER_34_209
*1529 FILLER_34_221
*1530 FILLER_34_233
*1531 FILLER_34_245
*1532 FILLER_34_249
*1533 FILLER_34_251
*1534 FILLER_34_253
*1535 FILLER_34_265
*1536 FILLER_34_27
*1537 FILLER_34_278
*1538 FILLER_34_286
*1539 FILLER_34_29
*1540 FILLER_34_299
*1541 FILLER_34_3
*1542 FILLER_34_307
*1543 FILLER_34_309
*1544 FILLER_34_317
*1545 FILLER_34_333
*1546 FILLER_34_345
*1547 FILLER_34_357
*1548 FILLER_34_361
*1549 FILLER_34_363
*1550 FILLER_34_365
*1551 FILLER_34_377
*1552 FILLER_34_41
*1553 FILLER_34_53
*1554 FILLER_34_65
*1555 FILLER_34_69
*1556 FILLER_34_82
*1557 FILLER_34_85
*1558 FILLER_34_97
*1559 FILLER_35_122
*1560 FILLER_35_126
*1561 FILLER_35_131
*1562 FILLER_35_15
*1563 FILLER_35_151
*1564 FILLER_35_169
*1565 FILLER_35_181
*1566 FILLER_35_185
*1567 FILLER_35_192
*1568 FILLER_35_204
*1569 FILLER_35_222
*1570 FILLER_35_225
*1571 FILLER_35_237
*1572 FILLER_35_249
*1573 FILLER_35_261
*1574 FILLER_35_27
*1575 FILLER_35_273
*1576 FILLER_35_277
*1577 FILLER_35_279
*1578 FILLER_35_281
*1579 FILLER_35_293
*1580 FILLER_35_3
*1581 FILLER_35_305
*1582 FILLER_35_317
*1583 FILLER_35_329
*1584 FILLER_35_333
*1585 FILLER_35_335
*1586 FILLER_35_337
*1587 FILLER_35_349
*1588 FILLER_35_361
*1589 FILLER_35_373
*1590 FILLER_35_39
*1591 FILLER_35_51
*1592 FILLER_35_55
*1593 FILLER_35_57
*1594 FILLER_35_76
*1595 FILLER_35_87
*1596 FILLER_35_99
*1597 FILLER_36_109
*1598 FILLER_36_11
*1599 FILLER_36_115
*1600 FILLER_36_13
*1601 FILLER_36_132
*1602 FILLER_36_141
*1603 FILLER_36_151
*1604 FILLER_36_170
*1605 FILLER_36_182
*1606 FILLER_36_197
*1607 FILLER_36_209
*1608 FILLER_36_234
*1609 FILLER_36_241
*1610 FILLER_36_248
*1611 FILLER_36_259
*1612 FILLER_36_267
*1613 FILLER_36_269
*1614 FILLER_36_276
*1615 FILLER_36_280
*1616 FILLER_36_287
*1617 FILLER_36_29
*1618 FILLER_36_299
*1619 FILLER_36_3
*1620 FILLER_36_307
*1621 FILLER_36_309
*1622 FILLER_36_321
*1623 FILLER_36_333
*1624 FILLER_36_345
*1625 FILLER_36_349
*1626 FILLER_36_365
*1627 FILLER_36_377
*1628 FILLER_36_47
*1629 FILLER_36_59
*1630 FILLER_36_61
*1631 FILLER_36_75
*1632 FILLER_36_96
*1633 FILLER_36_98
*1634 FILLER_37_105
*1635 FILLER_37_113
*1636 FILLER_37_127
*1637 FILLER_37_129
*1638 FILLER_37_140
*1639 FILLER_37_164
*1640 FILLER_37_169
*1641 FILLER_37_172
*1642 FILLER_37_176
*1643 FILLER_37_179
*1644 FILLER_37_183
*1645 FILLER_37_209
*1646 FILLER_37_222
*1647 FILLER_37_24
*1648 FILLER_37_261
*1649 FILLER_37_265
*1650 FILLER_37_267
*1651 FILLER_37_293
*1652 FILLER_37_3
*1653 FILLER_37_329
*1654 FILLER_37_333
*1655 FILLER_37_335
*1656 FILLER_37_365
*1657 FILLER_37_377
*1658 FILLER_37_39
*1659 FILLER_37_41
*1660 FILLER_37_57
*1661 FILLER_37_69
*1662 FILLER_37_7
*1663 FILLER_37_84
*1664 FILLER_37_88
*1665 FILLER_37_9
*1666 FILLER_37_92
*1667 FILLER_38_111
*1668 FILLER_38_113
*1669 FILLER_38_125
*1670 FILLER_38_139
*1671 FILLER_38_141
*1672 FILLER_38_145
*1673 FILLER_38_147
*1674 FILLER_38_15
*1675 FILLER_38_150
*1676 FILLER_38_162
*1677 FILLER_38_166
*1678 FILLER_38_169
*1679 FILLER_38_181
*1680 FILLER_38_189
*1681 FILLER_38_194
*1682 FILLER_38_209
*1683 FILLER_38_221
*1684 FILLER_38_223
*1685 FILLER_38_225
*1686 FILLER_38_237
*1687 FILLER_38_249
*1688 FILLER_38_251
*1689 FILLER_38_265
*1690 FILLER_38_27
*1691 FILLER_38_277
*1692 FILLER_38_279
*1693 FILLER_38_281
*1694 FILLER_38_289
*1695 FILLER_38_29
*1696 FILLER_38_3
*1697 FILLER_38_303
*1698 FILLER_38_309
*1699 FILLER_38_321
*1700 FILLER_38_351
*1701 FILLER_38_363
*1702 FILLER_38_365
*1703 FILLER_38_377
*1704 FILLER_38_51
*1705 FILLER_38_55
*1706 FILLER_38_57
*1707 FILLER_38_69
*1708 FILLER_38_73
*1709 FILLER_38_79
*1710 FILLER_38_83
*1711 FILLER_38_85
*1712 FILLER_38_99
*1713 FILLER_3_106
*1714 FILLER_3_110
*1715 FILLER_3_113
*1716 FILLER_3_121
*1717 FILLER_3_123
*1718 FILLER_3_132
*1719 FILLER_3_136
*1720 FILLER_3_15
*1721 FILLER_3_153
*1722 FILLER_3_157
*1723 FILLER_3_166
*1724 FILLER_3_169
*1725 FILLER_3_181
*1726 FILLER_3_185
*1727 FILLER_3_206
*1728 FILLER_3_218
*1729 FILLER_3_222
*1730 FILLER_3_225
*1731 FILLER_3_227
*1732 FILLER_3_240
*1733 FILLER_3_252
*1734 FILLER_3_264
*1735 FILLER_3_27
*1736 FILLER_3_276
*1737 FILLER_3_281
*1738 FILLER_3_283
*1739 FILLER_3_290
*1740 FILLER_3_3
*1741 FILLER_3_302
*1742 FILLER_3_314
*1743 FILLER_3_326
*1744 FILLER_3_334
*1745 FILLER_3_337
*1746 FILLER_3_349
*1747 FILLER_3_35
*1748 FILLER_3_361
*1749 FILLER_3_37
*1750 FILLER_3_373
*1751 FILLER_3_40
*1752 FILLER_3_52
*1753 FILLER_3_57
*1754 FILLER_3_69
*1755 FILLER_3_73
*1756 FILLER_4_109
*1757 FILLER_4_121
*1758 FILLER_4_136
*1759 FILLER_4_141
*1760 FILLER_4_15
*1761 FILLER_4_153
*1762 FILLER_4_161
*1763 FILLER_4_163
*1764 FILLER_4_181
*1765 FILLER_4_194
*1766 FILLER_4_197
*1767 FILLER_4_209
*1768 FILLER_4_221
*1769 FILLER_4_233
*1770 FILLER_4_245
*1771 FILLER_4_249
*1772 FILLER_4_251
*1773 FILLER_4_253
*1774 FILLER_4_265
*1775 FILLER_4_27
*1776 FILLER_4_29
*1777 FILLER_4_3
*1778 FILLER_4_305
*1779 FILLER_4_307
*1780 FILLER_4_309
*1781 FILLER_4_321
*1782 FILLER_4_333
*1783 FILLER_4_345
*1784 FILLER_4_357
*1785 FILLER_4_361
*1786 FILLER_4_363
*1787 FILLER_4_365
*1788 FILLER_4_377
*1789 FILLER_4_41
*1790 FILLER_4_53
*1791 FILLER_4_65
*1792 FILLER_4_77
*1793 FILLER_4_81
*1794 FILLER_4_83
*1795 FILLER_4_85
*1796 FILLER_4_97
*1797 FILLER_5_110
*1798 FILLER_5_113
*1799 FILLER_5_121
*1800 FILLER_5_123
*1801 FILLER_5_133
*1802 FILLER_5_145
*1803 FILLER_5_15
*1804 FILLER_5_157
*1805 FILLER_5_165
*1806 FILLER_5_167
*1807 FILLER_5_169
*1808 FILLER_5_181
*1809 FILLER_5_189
*1810 FILLER_5_201
*1811 FILLER_5_213
*1812 FILLER_5_221
*1813 FILLER_5_223
*1814 FILLER_5_225
*1815 FILLER_5_229
*1816 FILLER_5_242
*1817 FILLER_5_254
*1818 FILLER_5_258
*1819 FILLER_5_27
*1820 FILLER_5_272
*1821 FILLER_5_281
*1822 FILLER_5_293
*1823 FILLER_5_3
*1824 FILLER_5_305
*1825 FILLER_5_317
*1826 FILLER_5_329
*1827 FILLER_5_333
*1828 FILLER_5_335
*1829 FILLER_5_337
*1830 FILLER_5_349
*1831 FILLER_5_361
*1832 FILLER_5_365
*1833 FILLER_5_367
*1834 FILLER_5_370
*1835 FILLER_5_382
*1836 FILLER_5_384
*1837 FILLER_5_39
*1838 FILLER_5_47
*1839 FILLER_5_50
*1840 FILLER_5_54
*1841 FILLER_5_57
*1842 FILLER_5_59
*1843 FILLER_5_62
*1844 FILLER_5_70
*1845 FILLER_5_74
*1846 FILLER_5_86
*1847 FILLER_5_98
*1848 FILLER_6_109
*1849 FILLER_6_121
*1850 FILLER_6_133
*1851 FILLER_6_137
*1852 FILLER_6_139
*1853 FILLER_6_141
*1854 FILLER_6_15
*1855 FILLER_6_153
*1856 FILLER_6_169
*1857 FILLER_6_181
*1858 FILLER_6_193
*1859 FILLER_6_195
*1860 FILLER_6_197
*1861 FILLER_6_201
*1862 FILLER_6_239
*1863 FILLER_6_251
*1864 FILLER_6_253
*1865 FILLER_6_265
*1866 FILLER_6_267
*1867 FILLER_6_27
*1868 FILLER_6_29
*1869 FILLER_6_292
*1870 FILLER_6_3
*1871 FILLER_6_304
*1872 FILLER_6_309
*1873 FILLER_6_321
*1874 FILLER_6_333
*1875 FILLER_6_345
*1876 FILLER_6_357
*1877 FILLER_6_361
*1878 FILLER_6_363
*1879 FILLER_6_365
*1880 FILLER_6_377
*1881 FILLER_6_41
*1882 FILLER_6_53
*1883 FILLER_6_65
*1884 FILLER_6_77
*1885 FILLER_6_81
*1886 FILLER_6_83
*1887 FILLER_6_85
*1888 FILLER_6_97
*1889 FILLER_7_105
*1890 FILLER_7_109
*1891 FILLER_7_111
*1892 FILLER_7_113
*1893 FILLER_7_125
*1894 FILLER_7_136
*1895 FILLER_7_148
*1896 FILLER_7_15
*1897 FILLER_7_160
*1898 FILLER_7_169
*1899 FILLER_7_181
*1900 FILLER_7_193
*1901 FILLER_7_205
*1902 FILLER_7_207
*1903 FILLER_7_220
*1904 FILLER_7_237
*1905 FILLER_7_249
*1906 FILLER_7_261
*1907 FILLER_7_263
*1908 FILLER_7_27
*1909 FILLER_7_270
*1910 FILLER_7_278
*1911 FILLER_7_281
*1912 FILLER_7_283
*1913 FILLER_7_296
*1914 FILLER_7_3
*1915 FILLER_7_308
*1916 FILLER_7_320
*1917 FILLER_7_332
*1918 FILLER_7_337
*1919 FILLER_7_349
*1920 FILLER_7_361
*1921 FILLER_7_373
*1922 FILLER_7_39
*1923 FILLER_7_51
*1924 FILLER_7_55
*1925 FILLER_7_57
*1926 FILLER_7_69
*1927 FILLER_7_81
*1928 FILLER_7_93
*1929 FILLER_8_109
*1930 FILLER_8_121
*1931 FILLER_8_133
*1932 FILLER_8_137
*1933 FILLER_8_141
*1934 FILLER_8_15
*1935 FILLER_8_153
*1936 FILLER_8_165
*1937 FILLER_8_189
*1938 FILLER_8_193
*1939 FILLER_8_195
*1940 FILLER_8_197
*1941 FILLER_8_223
*1942 FILLER_8_225
*1943 FILLER_8_244
*1944 FILLER_8_253
*1945 FILLER_8_261
*1946 FILLER_8_263
*1947 FILLER_8_27
*1948 FILLER_8_288
*1949 FILLER_8_29
*1950 FILLER_8_3
*1951 FILLER_8_300
*1952 FILLER_8_309
*1953 FILLER_8_321
*1954 FILLER_8_333
*1955 FILLER_8_345
*1956 FILLER_8_357
*1957 FILLER_8_361
*1958 FILLER_8_363
*1959 FILLER_8_365
*1960 FILLER_8_377
*1961 FILLER_8_41
*1962 FILLER_8_53
*1963 FILLER_8_65
*1964 FILLER_8_77
*1965 FILLER_8_81
*1966 FILLER_8_83
*1967 FILLER_8_85
*1968 FILLER_8_97
*1969 FILLER_9_105
*1970 FILLER_9_109
*1971 FILLER_9_111
*1972 FILLER_9_113
*1973 FILLER_9_125
*1974 FILLER_9_137
*1975 FILLER_9_149
*1976 FILLER_9_15
*1977 FILLER_9_161
*1978 FILLER_9_165
*1979 FILLER_9_167
*1980 FILLER_9_169
*1981 FILLER_9_173
*1982 FILLER_9_177
*1983 FILLER_9_184
*1984 FILLER_9_196
*1985 FILLER_9_208
*1986 FILLER_9_220
*1987 FILLER_9_225
*1988 FILLER_9_237
*1989 FILLER_9_249
*1990 FILLER_9_261
*1991 FILLER_9_265
*1992 FILLER_9_267
*1993 FILLER_9_27
*1994 FILLER_9_293
*1995 FILLER_9_3
*1996 FILLER_9_305
*1997 FILLER_9_317
*1998 FILLER_9_321
*1999 FILLER_9_323
*2000 FILLER_9_326
*2001 FILLER_9_334
*2002 FILLER_9_339
*2003 FILLER_9_351
*2004 FILLER_9_363
*2005 FILLER_9_366
*2006 FILLER_9_378
*2007 FILLER_9_382
*2008 FILLER_9_384
*2009 FILLER_9_39
*2010 FILLER_9_51
*2011 FILLER_9_55
*2012 FILLER_9_57
*2013 FILLER_9_69
*2014 FILLER_9_81
*2015 FILLER_9_93
*2016 PHY_EDGE_ROW_0_Left_39
*2017 PHY_EDGE_ROW_0_Right_0
*2018 PHY_EDGE_ROW_10_Left_49
*2019 PHY_EDGE_ROW_10_Right_10
*2020 PHY_EDGE_ROW_11_Left_50
*2021 PHY_EDGE_ROW_11_Right_11
*2022 PHY_EDGE_ROW_12_Left_51
*2023 PHY_EDGE_ROW_12_Right_12
*2024 PHY_EDGE_ROW_13_Left_52
*2025 PHY_EDGE_ROW_13_Right_13
*2026 PHY_EDGE_ROW_14_Left_53
*2027 PHY_EDGE_ROW_14_Right_14
*2028 PHY_EDGE_ROW_15_Left_54
*2029 PHY_EDGE_ROW_15_Right_15
*2030 PHY_EDGE_ROW_16_Left_55
*2031 PHY_EDGE_ROW_16_Right_16
*2032 PHY_EDGE_ROW_17_Left_56
*2033 PHY_EDGE_ROW_17_Right_17
*2034 PHY_EDGE_ROW_18_Left_57
*2035 PHY_EDGE_ROW_18_Right_18
*2036 PHY_EDGE_ROW_19_Left_58
*2037 PHY_EDGE_ROW_19_Right_19
*2038 PHY_EDGE_ROW_1_Left_40
*2039 PHY_EDGE_ROW_1_Right_1
*2040 PHY_EDGE_ROW_20_Left_59
*2041 PHY_EDGE_ROW_20_Right_20
*2042 PHY_EDGE_ROW_21_Left_60
*2043 PHY_EDGE_ROW_21_Right_21
*2044 PHY_EDGE_ROW_22_Left_61
*2045 PHY_EDGE_ROW_22_Right_22
*2046 PHY_EDGE_ROW_23_Left_62
*2047 PHY_EDGE_ROW_23_Right_23
*2048 PHY_EDGE_ROW_24_Left_63
*2049 PHY_EDGE_ROW_24_Right_24
*2050 PHY_EDGE_ROW_25_Left_64
*2051 PHY_EDGE_ROW_25_Right_25
*2052 PHY_EDGE_ROW_26_Left_65
*2053 PHY_EDGE_ROW_26_Right_26
*2054 PHY_EDGE_ROW_27_Left_66
*2055 PHY_EDGE_ROW_27_Right_27
*2056 PHY_EDGE_ROW_28_Left_67
*2057 PHY_EDGE_ROW_28_Right_28
*2058 PHY_EDGE_ROW_29_Left_68
*2059 PHY_EDGE_ROW_29_Right_29
*2060 PHY_EDGE_ROW_2_Left_41
*2061 PHY_EDGE_ROW_2_Right_2
*2062 PHY_EDGE_ROW_30_Left_69
*2063 PHY_EDGE_ROW_30_Right_30
*2064 PHY_EDGE_ROW_31_Left_70
*2065 PHY_EDGE_ROW_31_Right_31
*2066 PHY_EDGE_ROW_32_Left_71
*2067 PHY_EDGE_ROW_32_Right_32
*2068 PHY_EDGE_ROW_33_Left_72
*2069 PHY_EDGE_ROW_33_Right_33
*2070 PHY_EDGE_ROW_34_Left_73
*2071 PHY_EDGE_ROW_34_Right_34
*2072 PHY_EDGE_ROW_35_Left_74
*2073 PHY_EDGE_ROW_35_Right_35
*2074 PHY_EDGE_ROW_36_Left_75
*2075 PHY_EDGE_ROW_36_Right_36
*2076 PHY_EDGE_ROW_37_Left_76
*2077 PHY_EDGE_ROW_37_Right_37
*2078 PHY_EDGE_ROW_38_Left_77
*2079 PHY_EDGE_ROW_38_Right_38
*2080 PHY_EDGE_ROW_3_Left_42
*2081 PHY_EDGE_ROW_3_Right_3
*2082 PHY_EDGE_ROW_4_Left_43
*2083 PHY_EDGE_ROW_4_Right_4
*2084 PHY_EDGE_ROW_5_Left_44
*2085 PHY_EDGE_ROW_5_Right_5
*2086 PHY_EDGE_ROW_6_Left_45
*2087 PHY_EDGE_ROW_6_Right_6
*2088 PHY_EDGE_ROW_7_Left_46
*2089 PHY_EDGE_ROW_7_Right_7
*2090 PHY_EDGE_ROW_8_Left_47
*2091 PHY_EDGE_ROW_8_Right_8
*2092 PHY_EDGE_ROW_9_Left_48
*2093 PHY_EDGE_ROW_9_Right_9
*2094 TAP_TAPCELL_ROW_0_78
*2095 TAP_TAPCELL_ROW_0_79
*2096 TAP_TAPCELL_ROW_0_80
*2097 TAP_TAPCELL_ROW_0_81
*2098 TAP_TAPCELL_ROW_0_82
*2099 TAP_TAPCELL_ROW_0_83
*2100 TAP_TAPCELL_ROW_0_84
*2101 TAP_TAPCELL_ROW_0_85
*2102 TAP_TAPCELL_ROW_0_86
*2103 TAP_TAPCELL_ROW_0_87
*2104 TAP_TAPCELL_ROW_0_88
*2105 TAP_TAPCELL_ROW_0_89
*2106 TAP_TAPCELL_ROW_0_90
*2107 TAP_TAPCELL_ROW_10_149
*2108 TAP_TAPCELL_ROW_10_150
*2109 TAP_TAPCELL_ROW_10_151
*2110 TAP_TAPCELL_ROW_10_152
*2111 TAP_TAPCELL_ROW_10_153
*2112 TAP_TAPCELL_ROW_10_154
*2113 TAP_TAPCELL_ROW_10_155
*2114 TAP_TAPCELL_ROW_11_156
*2115 TAP_TAPCELL_ROW_11_157
*2116 TAP_TAPCELL_ROW_11_158
*2117 TAP_TAPCELL_ROW_11_159
*2118 TAP_TAPCELL_ROW_11_160
*2119 TAP_TAPCELL_ROW_11_161
*2120 TAP_TAPCELL_ROW_12_162
*2121 TAP_TAPCELL_ROW_12_163
*2122 TAP_TAPCELL_ROW_12_164
*2123 TAP_TAPCELL_ROW_12_165
*2124 TAP_TAPCELL_ROW_12_166
*2125 TAP_TAPCELL_ROW_12_167
*2126 TAP_TAPCELL_ROW_12_168
*2127 TAP_TAPCELL_ROW_13_169
*2128 TAP_TAPCELL_ROW_13_170
*2129 TAP_TAPCELL_ROW_13_171
*2130 TAP_TAPCELL_ROW_13_172
*2131 TAP_TAPCELL_ROW_13_173
*2132 TAP_TAPCELL_ROW_13_174
*2133 TAP_TAPCELL_ROW_14_175
*2134 TAP_TAPCELL_ROW_14_176
*2135 TAP_TAPCELL_ROW_14_177
*2136 TAP_TAPCELL_ROW_14_178
*2137 TAP_TAPCELL_ROW_14_179
*2138 TAP_TAPCELL_ROW_14_180
*2139 TAP_TAPCELL_ROW_14_181
*2140 TAP_TAPCELL_ROW_15_182
*2141 TAP_TAPCELL_ROW_15_183
*2142 TAP_TAPCELL_ROW_15_184
*2143 TAP_TAPCELL_ROW_15_185
*2144 TAP_TAPCELL_ROW_15_186
*2145 TAP_TAPCELL_ROW_15_187
*2146 TAP_TAPCELL_ROW_16_188
*2147 TAP_TAPCELL_ROW_16_189
*2148 TAP_TAPCELL_ROW_16_190
*2149 TAP_TAPCELL_ROW_16_191
*2150 TAP_TAPCELL_ROW_16_192
*2151 TAP_TAPCELL_ROW_16_193
*2152 TAP_TAPCELL_ROW_16_194
*2153 TAP_TAPCELL_ROW_17_195
*2154 TAP_TAPCELL_ROW_17_196
*2155 TAP_TAPCELL_ROW_17_197
*2156 TAP_TAPCELL_ROW_17_198
*2157 TAP_TAPCELL_ROW_17_199
*2158 TAP_TAPCELL_ROW_17_200
*2159 TAP_TAPCELL_ROW_18_201
*2160 TAP_TAPCELL_ROW_18_202
*2161 TAP_TAPCELL_ROW_18_203
*2162 TAP_TAPCELL_ROW_18_204
*2163 TAP_TAPCELL_ROW_18_205
*2164 TAP_TAPCELL_ROW_18_206
*2165 TAP_TAPCELL_ROW_18_207
*2166 TAP_TAPCELL_ROW_19_208
*2167 TAP_TAPCELL_ROW_19_209
*2168 TAP_TAPCELL_ROW_19_210
*2169 TAP_TAPCELL_ROW_19_211
*2170 TAP_TAPCELL_ROW_19_212
*2171 TAP_TAPCELL_ROW_19_213
*2172 TAP_TAPCELL_ROW_1_91
*2173 TAP_TAPCELL_ROW_1_92
*2174 TAP_TAPCELL_ROW_1_93
*2175 TAP_TAPCELL_ROW_1_94
*2176 TAP_TAPCELL_ROW_1_95
*2177 TAP_TAPCELL_ROW_1_96
*2178 TAP_TAPCELL_ROW_20_214
*2179 TAP_TAPCELL_ROW_20_215
*2180 TAP_TAPCELL_ROW_20_216
*2181 TAP_TAPCELL_ROW_20_217
*2182 TAP_TAPCELL_ROW_20_218
*2183 TAP_TAPCELL_ROW_20_219
*2184 TAP_TAPCELL_ROW_20_220
*2185 TAP_TAPCELL_ROW_21_221
*2186 TAP_TAPCELL_ROW_21_222
*2187 TAP_TAPCELL_ROW_21_223
*2188 TAP_TAPCELL_ROW_21_224
*2189 TAP_TAPCELL_ROW_21_225
*2190 TAP_TAPCELL_ROW_21_226
*2191 TAP_TAPCELL_ROW_22_227
*2192 TAP_TAPCELL_ROW_22_228
*2193 TAP_TAPCELL_ROW_22_229
*2194 TAP_TAPCELL_ROW_22_230
*2195 TAP_TAPCELL_ROW_22_231
*2196 TAP_TAPCELL_ROW_22_232
*2197 TAP_TAPCELL_ROW_22_233
*2198 TAP_TAPCELL_ROW_23_234
*2199 TAP_TAPCELL_ROW_23_235
*2200 TAP_TAPCELL_ROW_23_236
*2201 TAP_TAPCELL_ROW_23_237
*2202 TAP_TAPCELL_ROW_23_238
*2203 TAP_TAPCELL_ROW_23_239
*2204 TAP_TAPCELL_ROW_24_240
*2205 TAP_TAPCELL_ROW_24_241
*2206 TAP_TAPCELL_ROW_24_242
*2207 TAP_TAPCELL_ROW_24_243
*2208 TAP_TAPCELL_ROW_24_244
*2209 TAP_TAPCELL_ROW_24_245
*2210 TAP_TAPCELL_ROW_24_246
*2211 TAP_TAPCELL_ROW_25_247
*2212 TAP_TAPCELL_ROW_25_248
*2213 TAP_TAPCELL_ROW_25_249
*2214 TAP_TAPCELL_ROW_25_250
*2215 TAP_TAPCELL_ROW_25_251
*2216 TAP_TAPCELL_ROW_25_252
*2217 TAP_TAPCELL_ROW_26_253
*2218 TAP_TAPCELL_ROW_26_254
*2219 TAP_TAPCELL_ROW_26_255
*2220 TAP_TAPCELL_ROW_26_256
*2221 TAP_TAPCELL_ROW_26_257
*2222 TAP_TAPCELL_ROW_26_258
*2223 TAP_TAPCELL_ROW_26_259
*2224 TAP_TAPCELL_ROW_27_260
*2225 TAP_TAPCELL_ROW_27_261
*2226 TAP_TAPCELL_ROW_27_262
*2227 TAP_TAPCELL_ROW_27_263
*2228 TAP_TAPCELL_ROW_27_264
*2229 TAP_TAPCELL_ROW_27_265
*2230 TAP_TAPCELL_ROW_28_266
*2231 TAP_TAPCELL_ROW_28_267
*2232 TAP_TAPCELL_ROW_28_268
*2233 TAP_TAPCELL_ROW_28_269
*2234 TAP_TAPCELL_ROW_28_270
*2235 TAP_TAPCELL_ROW_28_271
*2236 TAP_TAPCELL_ROW_28_272
*2237 TAP_TAPCELL_ROW_29_273
*2238 TAP_TAPCELL_ROW_29_274
*2239 TAP_TAPCELL_ROW_29_275
*2240 TAP_TAPCELL_ROW_29_276
*2241 TAP_TAPCELL_ROW_29_277
*2242 TAP_TAPCELL_ROW_29_278
*2243 TAP_TAPCELL_ROW_2_100
*2244 TAP_TAPCELL_ROW_2_101
*2245 TAP_TAPCELL_ROW_2_102
*2246 TAP_TAPCELL_ROW_2_103
*2247 TAP_TAPCELL_ROW_2_97
*2248 TAP_TAPCELL_ROW_2_98
*2249 TAP_TAPCELL_ROW_2_99
*2250 TAP_TAPCELL_ROW_30_279
*2251 TAP_TAPCELL_ROW_30_280
*2252 TAP_TAPCELL_ROW_30_281
*2253 TAP_TAPCELL_ROW_30_282
*2254 TAP_TAPCELL_ROW_30_283
*2255 TAP_TAPCELL_ROW_30_284
*2256 TAP_TAPCELL_ROW_30_285
*2257 TAP_TAPCELL_ROW_31_286
*2258 TAP_TAPCELL_ROW_31_287
*2259 TAP_TAPCELL_ROW_31_288
*2260 TAP_TAPCELL_ROW_31_289
*2261 TAP_TAPCELL_ROW_31_290
*2262 TAP_TAPCELL_ROW_31_291
*2263 TAP_TAPCELL_ROW_32_292
*2264 TAP_TAPCELL_ROW_32_293
*2265 TAP_TAPCELL_ROW_32_294
*2266 TAP_TAPCELL_ROW_32_295
*2267 TAP_TAPCELL_ROW_32_296
*2268 TAP_TAPCELL_ROW_32_297
*2269 TAP_TAPCELL_ROW_32_298
*2270 TAP_TAPCELL_ROW_33_299
*2271 TAP_TAPCELL_ROW_33_300
*2272 TAP_TAPCELL_ROW_33_301
*2273 TAP_TAPCELL_ROW_33_302
*2274 TAP_TAPCELL_ROW_33_303
*2275 TAP_TAPCELL_ROW_33_304
*2276 TAP_TAPCELL_ROW_34_305
*2277 TAP_TAPCELL_ROW_34_306
*2278 TAP_TAPCELL_ROW_34_307
*2279 TAP_TAPCELL_ROW_34_308
*2280 TAP_TAPCELL_ROW_34_309
*2281 TAP_TAPCELL_ROW_34_310
*2282 TAP_TAPCELL_ROW_34_311
*2283 TAP_TAPCELL_ROW_35_312
*2284 TAP_TAPCELL_ROW_35_313
*2285 TAP_TAPCELL_ROW_35_314
*2286 TAP_TAPCELL_ROW_35_315
*2287 TAP_TAPCELL_ROW_35_316
*2288 TAP_TAPCELL_ROW_35_317
*2289 TAP_TAPCELL_ROW_36_318
*2290 TAP_TAPCELL_ROW_36_319
*2291 TAP_TAPCELL_ROW_36_320
*2292 TAP_TAPCELL_ROW_36_321
*2293 TAP_TAPCELL_ROW_36_322
*2294 TAP_TAPCELL_ROW_36_323
*2295 TAP_TAPCELL_ROW_36_324
*2296 TAP_TAPCELL_ROW_37_325
*2297 TAP_TAPCELL_ROW_37_326
*2298 TAP_TAPCELL_ROW_37_327
*2299 TAP_TAPCELL_ROW_37_328
*2300 TAP_TAPCELL_ROW_37_329
*2301 TAP_TAPCELL_ROW_37_330
*2302 TAP_TAPCELL_ROW_38_331
*2303 TAP_TAPCELL_ROW_38_332
*2304 TAP_TAPCELL_ROW_38_333
*2305 TAP_TAPCELL_ROW_38_334
*2306 TAP_TAPCELL_ROW_38_335
*2307 TAP_TAPCELL_ROW_38_336
*2308 TAP_TAPCELL_ROW_38_337
*2309 TAP_TAPCELL_ROW_38_338
*2310 TAP_TAPCELL_ROW_38_339
*2311 TAP_TAPCELL_ROW_38_340
*2312 TAP_TAPCELL_ROW_38_341
*2313 TAP_TAPCELL_ROW_38_342
*2314 TAP_TAPCELL_ROW_38_343
*2315 TAP_TAPCELL_ROW_3_104
*2316 TAP_TAPCELL_ROW_3_105
*2317 TAP_TAPCELL_ROW_3_106
*2318 TAP_TAPCELL_ROW_3_107
*2319 TAP_TAPCELL_ROW_3_108
*2320 TAP_TAPCELL_ROW_3_109
*2321 TAP_TAPCELL_ROW_4_110
*2322 TAP_TAPCELL_ROW_4_111
*2323 TAP_TAPCELL_ROW_4_112
*2324 TAP_TAPCELL_ROW_4_113
*2325 TAP_TAPCELL_ROW_4_114
*2326 TAP_TAPCELL_ROW_4_115
*2327 TAP_TAPCELL_ROW_4_116
*2328 TAP_TAPCELL_ROW_5_117
*2329 TAP_TAPCELL_ROW_5_118
*2330 TAP_TAPCELL_ROW_5_119
*2331 TAP_TAPCELL_ROW_5_120
*2332 TAP_TAPCELL_ROW_5_121
*2333 TAP_TAPCELL_ROW_5_122
*2334 TAP_TAPCELL_ROW_6_123
*2335 TAP_TAPCELL_ROW_6_124
*2336 TAP_TAPCELL_ROW_6_125
*2337 TAP_TAPCELL_ROW_6_126
*2338 TAP_TAPCELL_ROW_6_127
*2339 TAP_TAPCELL_ROW_6_128
*2340 TAP_TAPCELL_ROW_6_129
*2341 TAP_TAPCELL_ROW_7_130
*2342 TAP_TAPCELL_ROW_7_131
*2343 TAP_TAPCELL_ROW_7_132
*2344 TAP_TAPCELL_ROW_7_133
*2345 TAP_TAPCELL_ROW_7_134
*2346 TAP_TAPCELL_ROW_7_135
*2347 TAP_TAPCELL_ROW_8_136
*2348 TAP_TAPCELL_ROW_8_137
*2349 TAP_TAPCELL_ROW_8_138
*2350 TAP_TAPCELL_ROW_8_139
*2351 TAP_TAPCELL_ROW_8_140
*2352 TAP_TAPCELL_ROW_8_141
*2353 TAP_TAPCELL_ROW_8_142
*2354 TAP_TAPCELL_ROW_9_143
*2355 TAP_TAPCELL_ROW_9_144
*2356 TAP_TAPCELL_ROW_9_145
*2357 TAP_TAPCELL_ROW_9_146
*2358 TAP_TAPCELL_ROW_9_147
*2359 TAP_TAPCELL_ROW_9_148
*2360 _0_
*2361 _1_
*2362 ctrl_diode_I\[0\]\.cell0_I
*2363 ctrl_diode_I\[1\]\.cell0_I
*2364 ctrl_diode_I\[2\]\.cell0_I
*2365 ctrl_ibuf_I\[0\]\.genblk1\.cell0_I
*2366 ctrl_ibuf_I\[1\]\.genblk1\.cell0_I
*2367 ctrl_ibuf_I\[2\]\.genblk1\.cell0_I
*2368 genblk1\[0\]\.tbuf_pol_spine_ow_I\.cell0_I
*2369 genblk1\[0\]\.tbuf_spine_ow_I\[0\]\.genblk1\.cell0_I
*2370 genblk1\[0\]\.tbuf_spine_ow_I\[10\]\.genblk1\.cell0_I
*2371 genblk1\[0\]\.tbuf_spine_ow_I\[11\]\.genblk1\.cell0_I
*2372 genblk1\[0\]\.tbuf_spine_ow_I\[12\]\.genblk1\.cell0_I
*2373 genblk1\[0\]\.tbuf_spine_ow_I\[13\]\.genblk1\.cell0_I
*2374 genblk1\[0\]\.tbuf_spine_ow_I\[14\]\.genblk1\.cell0_I
*2375 genblk1\[0\]\.tbuf_spine_ow_I\[15\]\.genblk1\.cell0_I
*2376 genblk1\[0\]\.tbuf_spine_ow_I\[16\]\.genblk1\.cell0_I
*2377 genblk1\[0\]\.tbuf_spine_ow_I\[17\]\.genblk1\.cell0_I
*2378 genblk1\[0\]\.tbuf_spine_ow_I\[18\]\.genblk1\.cell0_I
*2379 genblk1\[0\]\.tbuf_spine_ow_I\[19\]\.genblk1\.cell0_I
*2380 genblk1\[0\]\.tbuf_spine_ow_I\[1\]\.genblk1\.cell0_I
*2381 genblk1\[0\]\.tbuf_spine_ow_I\[20\]\.genblk1\.cell0_I
*2382 genblk1\[0\]\.tbuf_spine_ow_I\[21\]\.genblk1\.cell0_I
*2383 genblk1\[0\]\.tbuf_spine_ow_I\[22\]\.genblk1\.cell0_I
*2384 genblk1\[0\]\.tbuf_spine_ow_I\[23\]\.genblk1\.cell0_I
*2385 genblk1\[0\]\.tbuf_spine_ow_I\[2\]\.genblk1\.cell0_I
*2386 genblk1\[0\]\.tbuf_spine_ow_I\[3\]\.genblk1\.cell0_I
*2387 genblk1\[0\]\.tbuf_spine_ow_I\[4\]\.genblk1\.cell0_I
*2388 genblk1\[0\]\.tbuf_spine_ow_I\[5\]\.genblk1\.cell0_I
*2389 genblk1\[0\]\.tbuf_spine_ow_I\[6\]\.genblk1\.cell0_I
*2390 genblk1\[0\]\.tbuf_spine_ow_I\[7\]\.genblk1\.cell0_I
*2391 genblk1\[0\]\.tbuf_spine_ow_I\[8\]\.genblk1\.cell0_I
*2392 genblk1\[0\]\.tbuf_spine_ow_I\[9\]\.genblk1\.cell0_I
*2393 genblk1\[0\]\.tie_I\.cell_I
*2394 genblk1\[1\]\.tbuf_pol_spine_ow_I\.cell0_I
*2395 genblk1\[1\]\.tbuf_spine_ow_I\[0\]\.genblk1\.cell0_I
*2396 genblk1\[1\]\.tbuf_spine_ow_I\[10\]\.genblk1\.cell0_I
*2397 genblk1\[1\]\.tbuf_spine_ow_I\[11\]\.genblk1\.cell0_I
*2398 genblk1\[1\]\.tbuf_spine_ow_I\[12\]\.genblk1\.cell0_I
*2399 genblk1\[1\]\.tbuf_spine_ow_I\[13\]\.genblk1\.cell0_I
*2400 genblk1\[1\]\.tbuf_spine_ow_I\[14\]\.genblk1\.cell0_I
*2401 genblk1\[1\]\.tbuf_spine_ow_I\[15\]\.genblk1\.cell0_I
*2402 genblk1\[1\]\.tbuf_spine_ow_I\[16\]\.genblk1\.cell0_I
*2403 genblk1\[1\]\.tbuf_spine_ow_I\[17\]\.genblk1\.cell0_I
*2404 genblk1\[1\]\.tbuf_spine_ow_I\[18\]\.genblk1\.cell0_I
*2405 genblk1\[1\]\.tbuf_spine_ow_I\[19\]\.genblk1\.cell0_I
*2406 genblk1\[1\]\.tbuf_spine_ow_I\[1\]\.genblk1\.cell0_I
*2407 genblk1\[1\]\.tbuf_spine_ow_I\[20\]\.genblk1\.cell0_I
*2408 genblk1\[1\]\.tbuf_spine_ow_I\[21\]\.genblk1\.cell0_I
*2409 genblk1\[1\]\.tbuf_spine_ow_I\[22\]\.genblk1\.cell0_I
*2410 genblk1\[1\]\.tbuf_spine_ow_I\[23\]\.genblk1\.cell0_I
*2411 genblk1\[1\]\.tbuf_spine_ow_I\[2\]\.genblk1\.cell0_I
*2412 genblk1\[1\]\.tbuf_spine_ow_I\[3\]\.genblk1\.cell0_I
*2413 genblk1\[1\]\.tbuf_spine_ow_I\[4\]\.genblk1\.cell0_I
*2414 genblk1\[1\]\.tbuf_spine_ow_I\[5\]\.genblk1\.cell0_I
*2415 genblk1\[1\]\.tbuf_spine_ow_I\[6\]\.genblk1\.cell0_I
*2416 genblk1\[1\]\.tbuf_spine_ow_I\[7\]\.genblk1\.cell0_I
*2417 genblk1\[1\]\.tbuf_spine_ow_I\[8\]\.genblk1\.cell0_I
*2418 genblk1\[1\]\.tbuf_spine_ow_I\[9\]\.genblk1\.cell0_I
*2419 genblk1\[1\]\.tie_I\.cell_I
*2420 genblk2\[0\]\.ctrl_ena_buf_I\.genblk1\.cell0_I
*2421 genblk2\[0\]\.pad_ui_in_buf_I\[0\]\.genblk1\.cell0_I
*2422 genblk2\[0\]\.pad_ui_in_buf_I\[0\]\.genblk1\.cell1_I
*2423 genblk2\[0\]\.pad_ui_in_buf_I\[1\]\.genblk1\.cell0_I
*2424 genblk2\[0\]\.pad_ui_in_buf_I\[1\]\.genblk1\.cell1_I
*2425 genblk2\[0\]\.pad_ui_in_buf_I\[2\]\.genblk1\.cell0_I
*2426 genblk2\[0\]\.pad_ui_in_buf_I\[2\]\.genblk1\.cell1_I
*2427 genblk2\[0\]\.pad_ui_in_buf_I\[3\]\.genblk1\.cell0_I
*2428 genblk2\[0\]\.pad_ui_in_buf_I\[3\]\.genblk1\.cell1_I
*2429 genblk2\[0\]\.pad_ui_in_buf_I\[4\]\.genblk1\.cell0_I
*2430 genblk2\[0\]\.pad_ui_in_buf_I\[4\]\.genblk1\.cell1_I
*2431 genblk2\[0\]\.pad_ui_in_buf_I\[5\]\.genblk1\.cell0_I
*2432 genblk2\[0\]\.pad_ui_in_buf_I\[5\]\.genblk1\.cell1_I
*2433 genblk2\[0\]\.pad_ui_in_buf_I\[6\]\.genblk1\.cell0_I
*2434 genblk2\[0\]\.pad_ui_in_buf_I\[6\]\.genblk1\.cell1_I
*2435 genblk2\[0\]\.pad_ui_in_buf_I\[7\]\.genblk1\.cell0_I
*2436 genblk2\[0\]\.pad_ui_in_buf_I\[7\]\.genblk1\.cell1_I
*2437 genblk2\[0\]\.pad_ui_in_buf_I\[8\]\.genblk1\.cell0_I
*2438 genblk2\[0\]\.pad_ui_in_buf_I\[8\]\.genblk1\.cell1_I
*2439 genblk2\[0\]\.pad_ui_in_buf_I\[9\]\.genblk1\.cell0_I
*2440 genblk2\[0\]\.pad_ui_in_buf_I\[9\]\.genblk1\.cell1_I
*2441 genblk2\[0\]\.pad_uio_in_buf_I\[0\]\.genblk1\.cell0_I
*2442 genblk2\[0\]\.pad_uio_in_buf_I\[0\]\.genblk1\.cell1_I
*2443 genblk2\[0\]\.pad_uio_in_buf_I\[1\]\.genblk1\.cell0_I
*2444 genblk2\[0\]\.pad_uio_in_buf_I\[1\]\.genblk1\.cell1_I
*2445 genblk2\[0\]\.pad_uio_in_buf_I\[2\]\.genblk1\.cell0_I
*2446 genblk2\[0\]\.pad_uio_in_buf_I\[2\]\.genblk1\.cell1_I
*2447 genblk2\[0\]\.pad_uio_in_buf_I\[3\]\.genblk1\.cell0_I
*2448 genblk2\[0\]\.pad_uio_in_buf_I\[3\]\.genblk1\.cell1_I
*2449 genblk2\[0\]\.pad_uio_in_buf_I\[4\]\.genblk1\.cell0_I
*2450 genblk2\[0\]\.pad_uio_in_buf_I\[4\]\.genblk1\.cell1_I
*2451 genblk2\[0\]\.pad_uio_in_buf_I\[5\]\.genblk1\.cell0_I
*2452 genblk2\[0\]\.pad_uio_in_buf_I\[5\]\.genblk1\.cell1_I
*2453 genblk2\[0\]\.pad_uio_in_buf_I\[6\]\.genblk1\.cell0_I
*2454 genblk2\[0\]\.pad_uio_in_buf_I\[6\]\.genblk1\.cell1_I
*2455 genblk2\[0\]\.pad_uio_in_buf_I\[7\]\.genblk1\.cell0_I
*2456 genblk2\[0\]\.pad_uio_in_buf_I\[7\]\.genblk1\.cell1_I
*2457 genblk2\[0\]\.sel_cnt_buf_I\[0\]\.genblk1\.cell0_I
*2458 genblk2\[0\]\.sel_cnt_buf_I\[1\]\.genblk1\.cell0_I
*2459 genblk2\[0\]\.sel_cnt_buf_I\[2\]\.genblk1\.cell0_I
*2460 genblk2\[0\]\.sel_cnt_buf_I\[3\]\.genblk1\.cell0_I
*2461 genblk2\[0\]\.sel_cnt_buf_I\[4\]\.genblk1\.cell0_I
*2462 genblk2\[0\]\.sel_cnt_buf_I\[5\]\.genblk1\.cell0_I
*2463 genblk2\[0\]\.sel_cnt_buf_I\[6\]\.genblk1\.cell0_I
*2464 genblk2\[0\]\.sel_cnt_buf_I\[7\]\.genblk1\.cell0_I
*2465 genblk2\[0\]\.sel_cnt_buf_I\[8\]\.genblk1\.cell0_I
*2466 genblk2\[0\]\.tie_guard_I\[0\]\.cell_I
*2467 genblk2\[0\]\.tie_guard_I\[1\]\.cell_I
*2468 genblk2\[1\]\.ctrl_ena_buf_I\.genblk1\.cell0_I
*2469 genblk2\[1\]\.pad_ui_in_buf_I\[0\]\.genblk1\.cell0_I
*2470 genblk2\[1\]\.pad_ui_in_buf_I\[0\]\.genblk1\.cell1_I
*2471 genblk2\[1\]\.pad_ui_in_buf_I\[1\]\.genblk1\.cell0_I
*2472 genblk2\[1\]\.pad_ui_in_buf_I\[1\]\.genblk1\.cell1_I
*2473 genblk2\[1\]\.pad_ui_in_buf_I\[2\]\.genblk1\.cell0_I
*2474 genblk2\[1\]\.pad_ui_in_buf_I\[2\]\.genblk1\.cell1_I
*2475 genblk2\[1\]\.pad_ui_in_buf_I\[3\]\.genblk1\.cell0_I
*2476 genblk2\[1\]\.pad_ui_in_buf_I\[3\]\.genblk1\.cell1_I
*2477 genblk2\[1\]\.pad_ui_in_buf_I\[4\]\.genblk1\.cell0_I
*2478 genblk2\[1\]\.pad_ui_in_buf_I\[4\]\.genblk1\.cell1_I
*2479 genblk2\[1\]\.pad_ui_in_buf_I\[5\]\.genblk1\.cell0_I
*2480 genblk2\[1\]\.pad_ui_in_buf_I\[5\]\.genblk1\.cell1_I
*2481 genblk2\[1\]\.pad_ui_in_buf_I\[6\]\.genblk1\.cell0_I
*2482 genblk2\[1\]\.pad_ui_in_buf_I\[6\]\.genblk1\.cell1_I
*2483 genblk2\[1\]\.pad_ui_in_buf_I\[7\]\.genblk1\.cell0_I
*2484 genblk2\[1\]\.pad_ui_in_buf_I\[7\]\.genblk1\.cell1_I
*2485 genblk2\[1\]\.pad_ui_in_buf_I\[8\]\.genblk1\.cell0_I
*2486 genblk2\[1\]\.pad_ui_in_buf_I\[8\]\.genblk1\.cell1_I
*2487 genblk2\[1\]\.pad_ui_in_buf_I\[9\]\.genblk1\.cell0_I
*2488 genblk2\[1\]\.pad_ui_in_buf_I\[9\]\.genblk1\.cell1_I
*2489 genblk2\[1\]\.pad_uio_in_buf_I\[0\]\.genblk1\.cell0_I
*2490 genblk2\[1\]\.pad_uio_in_buf_I\[0\]\.genblk1\.cell1_I
*2491 genblk2\[1\]\.pad_uio_in_buf_I\[1\]\.genblk1\.cell0_I
*2492 genblk2\[1\]\.pad_uio_in_buf_I\[1\]\.genblk1\.cell1_I
*2493 genblk2\[1\]\.pad_uio_in_buf_I\[2\]\.genblk1\.cell0_I
*2494 genblk2\[1\]\.pad_uio_in_buf_I\[2\]\.genblk1\.cell1_I
*2495 genblk2\[1\]\.pad_uio_in_buf_I\[3\]\.genblk1\.cell0_I
*2496 genblk2\[1\]\.pad_uio_in_buf_I\[3\]\.genblk1\.cell1_I
*2497 genblk2\[1\]\.pad_uio_in_buf_I\[4\]\.genblk1\.cell0_I
*2498 genblk2\[1\]\.pad_uio_in_buf_I\[4\]\.genblk1\.cell1_I
*2499 genblk2\[1\]\.pad_uio_in_buf_I\[5\]\.genblk1\.cell0_I
*2500 genblk2\[1\]\.pad_uio_in_buf_I\[5\]\.genblk1\.cell1_I
*2501 genblk2\[1\]\.pad_uio_in_buf_I\[6\]\.genblk1\.cell0_I
*2502 genblk2\[1\]\.pad_uio_in_buf_I\[6\]\.genblk1\.cell1_I
*2503 genblk2\[1\]\.pad_uio_in_buf_I\[7\]\.genblk1\.cell0_I
*2504 genblk2\[1\]\.pad_uio_in_buf_I\[7\]\.genblk1\.cell1_I
*2505 genblk2\[1\]\.sel_cnt_buf_I\[0\]\.genblk1\.cell0_I
*2506 genblk2\[1\]\.sel_cnt_buf_I\[1\]\.genblk1\.cell0_I
*2507 genblk2\[1\]\.sel_cnt_buf_I\[2\]\.genblk1\.cell0_I
*2508 genblk2\[1\]\.sel_cnt_buf_I\[3\]\.genblk1\.cell0_I
*2509 genblk2\[1\]\.sel_cnt_buf_I\[4\]\.genblk1\.cell0_I
*2510 genblk2\[1\]\.sel_cnt_buf_I\[5\]\.genblk1\.cell0_I
*2511 genblk2\[1\]\.sel_cnt_buf_I\[6\]\.genblk1\.cell0_I
*2512 genblk2\[1\]\.sel_cnt_buf_I\[7\]\.genblk1\.cell0_I
*2513 genblk2\[1\]\.sel_cnt_buf_I\[8\]\.genblk1\.cell0_I
*2514 genblk2\[1\]\.tie_guard_I\[0\]\.cell_I
*2515 genblk2\[1\]\.tie_guard_I\[1\]\.cell_I
*2516 pad_ui_in_diode_I\[0\]\.cell0_I
*2517 pad_ui_in_diode_I\[1\]\.cell0_I
*2518 pad_ui_in_diode_I\[2\]\.cell0_I
*2519 pad_ui_in_diode_I\[3\]\.cell0_I
*2520 pad_ui_in_diode_I\[4\]\.cell0_I
*2521 pad_ui_in_diode_I\[5\]\.cell0_I
*2522 pad_ui_in_diode_I\[6\]\.cell0_I
*2523 pad_ui_in_diode_I\[7\]\.cell0_I
*2524 pad_ui_in_diode_I\[8\]\.cell0_I
*2525 pad_ui_in_diode_I\[9\]\.cell0_I
*2526 pad_uio_in_diode_I\[0\]\.cell0_I
*2527 pad_uio_in_diode_I\[1\]\.cell0_I
*2528 pad_uio_in_diode_I\[2\]\.cell0_I
*2529 pad_uio_in_diode_I\[3\]\.cell0_I
*2530 pad_uio_in_diode_I\[4\]\.cell0_I
*2531 pad_uio_in_diode_I\[5\]\.cell0_I
*2532 pad_uio_in_diode_I\[6\]\.cell0_I
*2533 pad_uio_in_diode_I\[7\]\.cell0_I
*2534 sel_cnt_gen\[0\]\.cnt_bit_I\.cell0_I
*2535 sel_cnt_gen\[1\]\.cnt_bit_I\.cell0_I
*2536 sel_cnt_gen\[2\]\.cnt_bit_I\.cell0_I
*2537 sel_cnt_gen\[3\]\.cnt_bit_I\.cell0_I
*2538 sel_cnt_gen\[4\]\.cnt_bit_I\.cell0_I
*2539 sel_cnt_gen\[5\]\.cnt_bit_I\.cell0_I
*2540 sel_cnt_gen\[6\]\.cnt_bit_I\.cell0_I
*2541 sel_cnt_gen\[7\]\.cnt_bit_I\.cell0_I
*2542 sel_cnt_gen\[8\]\.cnt_bit_I\.cell0_I
*2543 sel_cnt_gen\[9\]\.cnt_bit_I\.cell0_I
*2544 side_ena0_buf_I\.genblk1\.cell0_I
*2545 side_ena0_buf_I\.genblk1\.cell1_I
*2546 side_ena0_gen_I\.genblk1\.cell0_I
*2547 side_ena1_buf_I\.genblk1\.cell0_I
*2548 side_ena1_buf_I\.genblk1\.cell1_I
*2549 side_sel_buf_I\.genblk1\.cell0_I
*2550 spine_diode_I\[0\]\.cell0_I
*2551 spine_diode_I\[10\]\.cell0_I
*2552 spine_diode_I\[11\]\.cell0_I
*2553 spine_diode_I\[12\]\.cell0_I
*2554 spine_diode_I\[13\]\.cell0_I
*2555 spine_diode_I\[14\]\.cell0_I
*2556 spine_diode_I\[15\]\.cell0_I
*2557 spine_diode_I\[16\]\.cell0_I
*2558 spine_diode_I\[17\]\.cell0_I
*2559 spine_diode_I\[18\]\.cell0_I
*2560 spine_diode_I\[19\]\.cell0_I
*2561 spine_diode_I\[1\]\.cell0_I
*2562 spine_diode_I\[20\]\.cell0_I
*2563 spine_diode_I\[21\]\.cell0_I
*2564 spine_diode_I\[22\]\.cell0_I
*2565 spine_diode_I\[23\]\.cell0_I
*2566 spine_diode_I\[24\]\.cell0_I
*2567 spine_diode_I\[25\]\.cell0_I
*2568 spine_diode_I\[26\]\.cell0_I
*2569 spine_diode_I\[27\]\.cell0_I
*2570 spine_diode_I\[28\]\.cell0_I
*2571 spine_diode_I\[29\]\.cell0_I
*2572 spine_diode_I\[2\]\.cell0_I
*2573 spine_diode_I\[30\]\.cell0_I
*2574 spine_diode_I\[31\]\.cell0_I
*2575 spine_diode_I\[32\]\.cell0_I
*2576 spine_diode_I\[33\]\.cell0_I
*2577 spine_diode_I\[34\]\.cell0_I
*2578 spine_diode_I\[35\]\.cell0_I
*2579 spine_diode_I\[36\]\.cell0_I
*2580 spine_diode_I\[37\]\.cell0_I
*2581 spine_diode_I\[38\]\.cell0_I
*2582 spine_diode_I\[39\]\.cell0_I
*2583 spine_diode_I\[3\]\.cell0_I
*2584 spine_diode_I\[40\]\.cell0_I
*2585 spine_diode_I\[41\]\.cell0_I
*2586 spine_diode_I\[42\]\.cell0_I
*2587 spine_diode_I\[43\]\.cell0_I
*2588 spine_diode_I\[44\]\.cell0_I
*2589 spine_diode_I\[45\]\.cell0_I
*2590 spine_diode_I\[46\]\.cell0_I
*2591 spine_diode_I\[47\]\.cell0_I
*2592 spine_diode_I\[48\]\.cell0_I
*2593 spine_diode_I\[49\]\.cell0_I
*2594 spine_diode_I\[4\]\.cell0_I
*2595 spine_diode_I\[50\]\.cell0_I
*2596 spine_diode_I\[51\]\.cell0_I
*2597 spine_diode_I\[5\]\.cell0_I
*2598 spine_diode_I\[6\]\.cell0_I
*2599 spine_diode_I\[7\]\.cell0_I
*2600 spine_diode_I\[8\]\.cell0_I
*2601 spine_diode_I\[9\]\.cell0_I
*2602 tie_I\.cell_I
*2603 uio_oe_ibuf_I\[0\]\.genblk1\.cell0_I
*2604 uio_oe_ibuf_I\[10\]\.genblk1\.cell0_I
*2605 uio_oe_ibuf_I\[11\]\.genblk1\.cell0_I
*2606 uio_oe_ibuf_I\[12\]\.genblk1\.cell0_I
*2607 uio_oe_ibuf_I\[13\]\.genblk1\.cell0_I
*2608 uio_oe_ibuf_I\[14\]\.genblk1\.cell0_I
*2609 uio_oe_ibuf_I\[15\]\.genblk1\.cell0_I
*2610 uio_oe_ibuf_I\[1\]\.genblk1\.cell0_I
*2611 uio_oe_ibuf_I\[2\]\.genblk1\.cell0_I
*2612 uio_oe_ibuf_I\[3\]\.genblk1\.cell0_I
*2613 uio_oe_ibuf_I\[4\]\.genblk1\.cell0_I
*2614 uio_oe_ibuf_I\[5\]\.genblk1\.cell0_I
*2615 uio_oe_ibuf_I\[6\]\.genblk1\.cell0_I
*2616 uio_oe_ibuf_I\[7\]\.genblk1\.cell0_I
*2617 uio_oe_ibuf_I\[8\]\.genblk1\.cell0_I
*2618 uio_oe_ibuf_I\[9\]\.genblk1\.cell0_I
*2619 uio_oe_mux_I\[0\]\.cell0_I
*2620 uio_oe_mux_I\[1\]\.cell0_I
*2621 uio_oe_mux_I\[2\]\.cell0_I
*2622 uio_oe_mux_I\[3\]\.cell0_I
*2623 uio_oe_mux_I\[4\]\.cell0_I
*2624 uio_oe_mux_I\[5\]\.cell0_I
*2625 uio_oe_mux_I\[6\]\.cell0_I
*2626 uio_oe_mux_I\[7\]\.cell0_I
*2627 uio_oe_obuf_I\[0\]\.genblk1\.cell0_I
*2628 uio_oe_obuf_I\[1\]\.genblk1\.cell0_I
*2629 uio_oe_obuf_I\[2\]\.genblk1\.cell0_I
*2630 uio_oe_obuf_I\[3\]\.genblk1\.cell0_I
*2631 uio_oe_obuf_I\[4\]\.genblk1\.cell0_I
*2632 uio_oe_obuf_I\[5\]\.genblk1\.cell0_I
*2633 uio_oe_obuf_I\[6\]\.genblk1\.cell0_I
*2634 uio_oe_obuf_I\[7\]\.genblk1\.cell0_I
*2635 uio_out_ibuf_I\[0\]\.genblk1\.cell0_I
*2636 uio_out_ibuf_I\[10\]\.genblk1\.cell0_I
*2637 uio_out_ibuf_I\[11\]\.genblk1\.cell0_I
*2638 uio_out_ibuf_I\[12\]\.genblk1\.cell0_I
*2639 uio_out_ibuf_I\[13\]\.genblk1\.cell0_I
*2640 uio_out_ibuf_I\[14\]\.genblk1\.cell0_I
*2641 uio_out_ibuf_I\[15\]\.genblk1\.cell0_I
*2642 uio_out_ibuf_I\[1\]\.genblk1\.cell0_I
*2643 uio_out_ibuf_I\[2\]\.genblk1\.cell0_I
*2644 uio_out_ibuf_I\[3\]\.genblk1\.cell0_I
*2645 uio_out_ibuf_I\[4\]\.genblk1\.cell0_I
*2646 uio_out_ibuf_I\[5\]\.genblk1\.cell0_I
*2647 uio_out_ibuf_I\[6\]\.genblk1\.cell0_I
*2648 uio_out_ibuf_I\[7\]\.genblk1\.cell0_I
*2649 uio_out_ibuf_I\[8\]\.genblk1\.cell0_I
*2650 uio_out_ibuf_I\[9\]\.genblk1\.cell0_I
*2651 uio_out_mux_I\[0\]\.cell0_I
*2652 uio_out_mux_I\[1\]\.cell0_I
*2653 uio_out_mux_I\[2\]\.cell0_I
*2654 uio_out_mux_I\[3\]\.cell0_I
*2655 uio_out_mux_I\[4\]\.cell0_I
*2656 uio_out_mux_I\[5\]\.cell0_I
*2657 uio_out_mux_I\[6\]\.cell0_I
*2658 uio_out_mux_I\[7\]\.cell0_I
*2659 uio_out_obuf_I\[0\]\.genblk1\.cell0_I
*2660 uio_out_obuf_I\[1\]\.genblk1\.cell0_I
*2661 uio_out_obuf_I\[2\]\.genblk1\.cell0_I
*2662 uio_out_obuf_I\[3\]\.genblk1\.cell0_I
*2663 uio_out_obuf_I\[4\]\.genblk1\.cell0_I
*2664 uio_out_obuf_I\[5\]\.genblk1\.cell0_I
*2665 uio_out_obuf_I\[6\]\.genblk1\.cell0_I
*2666 uio_out_obuf_I\[7\]\.genblk1\.cell0_I
*2667 uo_out_ibuf_I\[0\]\.genblk1\.cell0_I
*2668 uo_out_ibuf_I\[10\]\.genblk1\.cell0_I
*2669 uo_out_ibuf_I\[11\]\.genblk1\.cell0_I
*2670 uo_out_ibuf_I\[12\]\.genblk1\.cell0_I
*2671 uo_out_ibuf_I\[13\]\.genblk1\.cell0_I
*2672 uo_out_ibuf_I\[14\]\.genblk1\.cell0_I
*2673 uo_out_ibuf_I\[15\]\.genblk1\.cell0_I
*2674 uo_out_ibuf_I\[1\]\.genblk1\.cell0_I
*2675 uo_out_ibuf_I\[2\]\.genblk1\.cell0_I
*2676 uo_out_ibuf_I\[3\]\.genblk1\.cell0_I
*2677 uo_out_ibuf_I\[4\]\.genblk1\.cell0_I
*2678 uo_out_ibuf_I\[5\]\.genblk1\.cell0_I
*2679 uo_out_ibuf_I\[6\]\.genblk1\.cell0_I
*2680 uo_out_ibuf_I\[7\]\.genblk1\.cell0_I
*2681 uo_out_ibuf_I\[8\]\.genblk1\.cell0_I
*2682 uo_out_ibuf_I\[9\]\.genblk1\.cell0_I
*2683 uo_out_mux_I\[0\]\.cell0_I
*2684 uo_out_mux_I\[1\]\.cell0_I
*2685 uo_out_mux_I\[2\]\.cell0_I
*2686 uo_out_mux_I\[3\]\.cell0_I
*2687 uo_out_mux_I\[4\]\.cell0_I
*2688 uo_out_mux_I\[5\]\.cell0_I
*2689 uo_out_mux_I\[6\]\.cell0_I
*2690 uo_out_mux_I\[7\]\.cell0_I
*2691 uo_out_obuf_I\[0\]\.genblk1\.cell0_I
*2692 uo_out_obuf_I\[1\]\.genblk1\.cell0_I
*2693 uo_out_obuf_I\[2\]\.genblk1\.cell0_I
*2694 uo_out_obuf_I\[3\]\.genblk1\.cell0_I
*2695 uo_out_obuf_I\[4\]\.genblk1\.cell0_I
*2696 uo_out_obuf_I\[5\]\.genblk1\.cell0_I
*2697 uo_out_obuf_I\[6\]\.genblk1\.cell0_I
*2698 uo_out_obuf_I\[7\]\.genblk1\.cell0_I

*PORTS
ctrl_ena I
ctrl_sel_inc I
ctrl_sel_rst_n I
k_one O
k_zero O
pad_ui_in[0] I
pad_ui_in[1] I
pad_ui_in[2] I
pad_ui_in[3] I
pad_ui_in[4] I
pad_ui_in[5] I
pad_ui_in[6] I
pad_ui_in[7] I
pad_ui_in[8] I
pad_ui_in[9] I
pad_uio_in[0] I
pad_uio_in[1] I
pad_uio_in[2] I
pad_uio_in[3] I
pad_uio_in[4] I
pad_uio_in[5] I
pad_uio_in[6] I
pad_uio_in[7] I
pad_uio_oe_n[0] O
pad_uio_oe_n[1] O
pad_uio_oe_n[2] O
pad_uio_oe_n[3] O
pad_uio_oe_n[4] O
pad_uio_oe_n[5] O
pad_uio_oe_n[6] O
pad_uio_oe_n[7] O
pad_uio_out[0] O
pad_uio_out[1] O
pad_uio_out[2] O
pad_uio_out[3] O
pad_uio_out[4] O
pad_uio_out[5] O
pad_uio_out[6] O
pad_uio_out[7] O
pad_uo_out[0] O
pad_uo_out[1] O
pad_uo_out[2] O
pad_uo_out[3] O
pad_uo_out[4] O
pad_uo_out[5] O
pad_uo_out[6] O
pad_uo_out[7] O
spine_bot_iw[0] O
spine_bot_iw[10] O
spine_bot_iw[11] O
spine_bot_iw[12] O
spine_bot_iw[13] O
spine_bot_iw[14] O
spine_bot_iw[15] O
spine_bot_iw[16] O
spine_bot_iw[17] O
spine_bot_iw[18] O
spine_bot_iw[19] O
spine_bot_iw[1] O
spine_bot_iw[20] O
spine_bot_iw[21] O
spine_bot_iw[22] O
spine_bot_iw[23] O
spine_bot_iw[24] O
spine_bot_iw[25] O
spine_bot_iw[26] O
spine_bot_iw[27] O
spine_bot_iw[28] O
spine_bot_iw[29] O
spine_bot_iw[2] O
spine_bot_iw[3] O
spine_bot_iw[4] O
spine_bot_iw[5] O
spine_bot_iw[6] O
spine_bot_iw[7] O
spine_bot_iw[8] O
spine_bot_iw[9] O
spine_bot_ow[0] I
spine_bot_ow[10] I
spine_bot_ow[11] I
spine_bot_ow[12] I
spine_bot_ow[13] I
spine_bot_ow[14] I
spine_bot_ow[15] I
spine_bot_ow[16] I
spine_bot_ow[17] I
spine_bot_ow[18] I
spine_bot_ow[19] I
spine_bot_ow[1] I
spine_bot_ow[20] I
spine_bot_ow[21] I
spine_bot_ow[22] I
spine_bot_ow[23] I
spine_bot_ow[24] I
spine_bot_ow[25] I
spine_bot_ow[2] I
spine_bot_ow[3] I
spine_bot_ow[4] I
spine_bot_ow[5] I
spine_bot_ow[6] I
spine_bot_ow[7] I
spine_bot_ow[8] I
spine_bot_ow[9] I
spine_top_iw[0] O
spine_top_iw[10] O
spine_top_iw[11] O
spine_top_iw[12] O
spine_top_iw[13] O
spine_top_iw[14] O
spine_top_iw[15] O
spine_top_iw[16] O
spine_top_iw[17] O
spine_top_iw[18] O
spine_top_iw[19] O
spine_top_iw[1] O
spine_top_iw[20] O
spine_top_iw[21] O
spine_top_iw[22] O
spine_top_iw[23] O
spine_top_iw[24] O
spine_top_iw[25] O
spine_top_iw[26] O
spine_top_iw[27] O
spine_top_iw[28] O
spine_top_iw[29] O
spine_top_iw[2] O
spine_top_iw[3] O
spine_top_iw[4] O
spine_top_iw[5] O
spine_top_iw[6] O
spine_top_iw[7] O
spine_top_iw[8] O
spine_top_iw[9] O
spine_top_ow[0] I
spine_top_ow[10] I
spine_top_ow[11] I
spine_top_ow[12] I
spine_top_ow[13] I
spine_top_ow[14] I
spine_top_ow[15] I
spine_top_ow[16] I
spine_top_ow[17] I
spine_top_ow[18] I
spine_top_ow[19] I
spine_top_ow[1] I
spine_top_ow[20] I
spine_top_ow[21] I
spine_top_ow[22] I
spine_top_ow[23] I
spine_top_ow[24] I
spine_top_ow[25] I
spine_top_ow[2] I
spine_top_ow[3] I
spine_top_ow[4] I
spine_top_ow[5] I
spine_top_ow[6] I
spine_top_ow[7] I
spine_top_ow[8] I
spine_top_ow[9] I

*D_NET *3 0.00857936
*CONN
*P ctrl_ena I
*I *2365:A I *D sky130_fd_sc_hd__buf_2
*I *2362:DIODE I *D sky130_fd_sc_hd__diode_2
*CAP
1 ctrl_ena 0.000614283
2 *2365:A 0.00306327
3 *2362:DIODE 0
4 *3:24 0.00346486
5 *3:13 0.00101588
6 *3:13 k_one 9.26907e-06
7 *3:13 pad_uo_out[7] 0.000301017
8 *3:13 *2364:DIODE 8.19378e-05
9 *3:13 *4:13 2.88432e-05
10 *3:13 *5:33 0
11 *3:24 *5:33 0
12 *3:24 *25:13 0
*RES
1 ctrl_ena *3:13 6.22623 
2 *3:13 *2362:DIODE 3.6 
3 *3:13 *3:24 8.735 
4 *3:24 *2365:A 45.175 
*END

*D_NET *4 0.00906402
*CONN
*P ctrl_sel_inc I
*I *2366:A I *D sky130_fd_sc_hd__buf_2
*I *2363:DIODE I *D sky130_fd_sc_hd__diode_2
*CAP
1 ctrl_sel_inc 0.00372079
2 *2366:A 0.000405569
3 *2363:DIODE 0
4 *4:13 0.00412636
5 *2366:A *2456:A 0
6 *2366:A *5:35 0.000423506
7 *2366:A *98:24 0
8 *4:13 k_one 0
9 *4:13 k_zero 8.1472e-05
10 *4:13 spine_bot_ow[15] 0
11 *4:13 spine_bot_ow[16] 0
12 *4:13 spine_bot_ow[22] 0
13 *4:13 spine_bot_ow[23] 0
14 *4:13 spine_bot_ow[4] 0
15 *4:13 spine_bot_ow[6] 0
16 *4:13 spine_bot_ow[8] 0
17 *4:13 *2364:DIODE 6.24228e-05
18 *4:13 *2550:DIODE 0.000200486
19 *4:13 *2567:DIODE 1.45731e-05
20 *3:13 *4:13 2.88432e-05
*RES
1 ctrl_sel_inc *4:13 14.5034 
2 *4:13 *2363:DIODE 3.6 
3 *4:13 *2366:A 11.175 
*END

*D_NET *5 0.0113465
*CONN
*P ctrl_sel_rst_n I
*I *2367:A I *D sky130_fd_sc_hd__buf_2
*I *2364:DIODE I *D sky130_fd_sc_hd__diode_2
*CAP
1 ctrl_sel_rst_n 0.000458151
2 *2367:A 2.08101e-05
3 *2364:DIODE 0.00069967
4 *5:35 0.00341585
5 *5:33 0.00363656
6 *2364:DIODE k_one 0.000172613
7 *2364:DIODE k_zero 4.78564e-05
8 *5:35 *2371:A 0.000504484
9 *5:35 *2384:A 4.99619e-05
10 *5:35 *2534:CLK 0.000219667
11 *5:35 *166:75 1.91597e-05
12 *5:35 *166:83 4.35432e-05
13 *5:35 *166:204 1.19928e-05
14 *5:35 *167:152 2.75145e-05
15 *5:35 *167:154 0.000134314
16 *5:35 *167:163 0.000570832
17 *5:35 *167:191 0.000122325
18 *5:35 *167:193 0.000312964
19 *5:35 *167:195 0.0003104
20 *2366:A *5:35 0.000423506
21 *3:13 *2364:DIODE 8.19378e-05
22 *3:13 *5:33 0
23 *3:24 *5:33 0
24 *4:13 *2364:DIODE 6.24228e-05
*RES
1 ctrl_sel_rst_n *2364:DIODE 8.49823 
2 *2364:DIODE *5:33 9.53 
3 *5:33 *5:35 53.58 
4 *5:35 *2367:A 1.96 
*END

*D_NET *6 0.00118252
*CONN
*P k_one O
*I *2602:HI O *D sky130_fd_sc_hd__conb_1
*CAP
1 k_one 0.000474346
2 *2602:HI 0.000474346
3 k_one k_zero 5.19453e-05
4 k_one pad_uo_out[7] 0
5 *2364:DIODE k_one 0.000172613
6 *3:13 k_one 9.26907e-06
7 *4:13 k_one 0
*RES
1 *2602:HI k_one 5.81797 
*END

*D_NET *7 0.000939392
*CONN
*P k_zero O
*I *2602:LO O *D sky130_fd_sc_hd__conb_1
*CAP
1 k_zero 0.000379059
2 *2602:LO 0.000379059
3 k_one k_zero 5.19453e-05
4 *2364:DIODE k_zero 4.78564e-05
5 *4:13 k_zero 8.1472e-05
*RES
1 *2602:LO k_zero 9.4939 
*END

*D_NET *8 0.02401
*CONN
*P pad_ui_in[0] I
*I *2469:A I *D sky130_fd_sc_hd__and2_2
*I *2516:DIODE I *D sky130_fd_sc_hd__diode_2
*I *2421:A I *D sky130_fd_sc_hd__and2_2
*CAP
1 pad_ui_in[0] 0.00035878
2 *2469:A 0.0013421
3 *2516:DIODE 0
4 *2421:A 0.00113259
5 *8:15 0.00376803
6 *8:13 0.00433632
7 *2421:A *2431:A 0.00190457
8 *2421:A *2435:A 0.00212768
9 *2421:A *14:23 0.000258635
10 *2469:A *2487:A 0.000101404
11 *2469:A *2497:A 0.00102555
12 *2469:A *22:17 0.000381473
13 *2469:A *280:14 0.00112176
14 *8:13 *2487:A 5.83844e-05
15 *8:13 *9:11 0.000392583
16 *8:13 *17:9 0.000693247
17 *8:13 *17:42 1.79536e-05
18 *8:13 *18:11 1.09801e-05
19 *8:15 *2423:A 0
20 *8:15 *2439:A 0.000286266
21 *8:15 *2471:A 0
22 *8:15 *2489:A 0
23 *8:15 *9:13 0
24 *8:15 *17:42 0.00469172
*RES
1 pad_ui_in[0] *8:13 3.02863 
2 *8:13 *8:15 63.6 
3 *8:15 *2421:A 34.725 
4 *8:15 *2516:DIODE 3.6 
5 *8:13 *2469:A 32.805 
*END

*D_NET *9 0.0217545
*CONN
*P pad_ui_in[1] I
*I *2471:A I *D sky130_fd_sc_hd__and2_2
*I *2517:DIODE I *D sky130_fd_sc_hd__diode_2
*I *2423:A I *D sky130_fd_sc_hd__and2_2
*CAP
1 pad_ui_in[1] 0.000512173
2 *2471:A 0.00132234
3 *2517:DIODE 0
4 *2423:A 0.00183246
5 *9:13 0.0049558
6 *9:11 0.00495784
7 *2423:A *2424:A 5.83121e-06
8 *2423:A *2441:A 0
9 *2423:A *19:46 0.000772565
10 *2423:A *22:44 0.00117533
11 *2423:A *173:118 0.000347017
12 *2471:A spine_top_iw[10] 0
13 *2471:A spine_top_iw[9] 0
14 *2471:A *2489:A 0
15 *2471:A *2493:A 0.00245307
16 *2471:A *2627:A 0.000110525
17 *2471:A *2628:A 0.000109836
18 *2471:A *2659:A 0.000423036
19 *2471:A *2661:A 0.00144541
20 *2471:A *2662:A 0.000131791
21 *2471:A *18:13 0
22 *9:11 *18:11 0.000806896
23 *9:11 *19:9 0
24 *9:13 *2441:A 0
25 *9:13 *18:13 0
26 *8:13 *9:11 0.000392583
27 *8:15 *2423:A 0
28 *8:15 *2471:A 0
29 *8:15 *9:13 0
*RES
1 pad_ui_in[1] *9:11 3.3712 
2 *9:11 *9:13 52.5075 
3 *9:13 *2423:A 40.365 
4 *9:13 *2517:DIODE 3.6 
5 *9:11 *2471:A 43.1875 
*END

*D_NET *10 0.0161036
*CONN
*P pad_ui_in[2] I
*I *2473:A I *D sky130_fd_sc_hd__and2_2
*I *2518:DIODE I *D sky130_fd_sc_hd__diode_2
*I *2425:A I *D sky130_fd_sc_hd__and2_2
*CAP
1 pad_ui_in[2] 0.000414813
2 *2473:A 0.00164316
3 *2518:DIODE 0
4 *2425:A 0.00120293
5 *10:28 0.00413399
6 *10:26 0.00249083
7 *10:17 0.00161775
8 *2425:A *2420:A 0.000652269
9 *2425:A *2425:B 0.000388555
10 *2425:A *2426:A 5.2397e-05
11 *2473:A *2474:A 4.9253e-06
12 *2473:A *21:13 0.000411486
13 *10:17 *11:11 0.00013942
14 *10:28 *2427:A 0
15 *10:28 *2447:A 0
16 *10:28 *11:36 0
17 *10:28 *21:13 0.00295112
*RES
1 pad_ui_in[2] *10:17 7.53903 
2 *10:17 *2425:A 23.095 
3 *10:17 *10:26 2 
4 *10:26 *10:28 52.38 
5 *10:28 *2518:DIODE 3.6 
6 *10:28 *2473:A 29.445 
*END

*D_NET *11 0.0179426
*CONN
*P pad_ui_in[3] I
*I *2475:A I *D sky130_fd_sc_hd__and2_2
*I *2519:DIODE I *D sky130_fd_sc_hd__diode_2
*I *2427:A I *D sky130_fd_sc_hd__and2_2
*CAP
1 pad_ui_in[3] 0.000628568
2 *2475:A 0.00235201
3 *2519:DIODE 0
4 *2427:A 0.00168995
5 *11:36 0.00457776
6 *11:11 0.00454427
7 *2427:A *2428:A 0.000161893
8 *2427:A *2429:A 0.000643678
9 *2427:A *2437:A 0.000241421
10 *2427:A *2459:A 4.89295e-05
11 *2427:A *2534:CLK 2.937e-05
12 *2427:A *2534:D 7.01753e-05
13 *2427:A *2534:RESET_B 4.3767e-05
14 *2427:A *12:26 0
15 *2427:A *173:161 3.70488e-05
16 *2427:A *192:8 0.000498653
17 *2427:A *224:8 0.000222033
18 *2475:A *2512:A 0
19 *11:11 *12:11 0.000691442
20 *11:11 *14:23 8.85816e-05
21 *11:36 *2445:A 0
22 *11:36 *12:26 0
23 *11:36 *20:13 0
24 *11:36 *20:17 0
25 *11:36 *21:13 0.0012336
26 *10:17 *11:11 0.00013942
27 *10:28 *2427:A 0
28 *10:28 *11:36 0
*RES
1 pad_ui_in[3] *11:11 3.28507 
2 *11:11 *2427:A 34.1625 
3 *11:11 *11:36 47.6225 
4 *11:36 *2519:DIODE 1.6 
5 *11:36 *2475:A 36.41 
*END

*D_NET *12 0.0246643
*CONN
*P pad_ui_in[4] I
*I *2477:A I *D sky130_fd_sc_hd__and2_2
*I *2520:DIODE I *D sky130_fd_sc_hd__diode_2
*I *2429:A I *D sky130_fd_sc_hd__and2_2
*CAP
1 pad_ui_in[4] 0.000344021
2 *2477:A 0.00164931
3 *2520:DIODE 0
4 *2429:A 0.00249786
5 *12:26 0.00287313
6 *12:11 0.0040657
7 *2429:A *2437:A 0.000191982
8 *2429:A *2459:A 1.77665e-05
9 *2429:A *2534:CLK 2.49909e-05
10 *2429:A *2534:D 9.55766e-05
11 *2429:A *13:13 4.88008e-05
12 *2429:A *14:23 0
13 *2429:A *15:13 0
14 *2429:A *173:161 0.000170402
15 *2429:A *224:8 0.000332409
16 *2477:A *2479:A 0.000201335
17 *2477:A *13:30 0.000189426
18 *2477:A *16:53 0.00328906
19 *2477:A *20:13 0.000215928
20 *12:11 *13:13 0.000780814
21 *12:11 *14:11 0.000119947
22 *12:11 *14:23 1.98899e-05
23 *12:26 *2445:A 7.23602e-05
24 *12:26 *13:13 1.7635e-05
25 *12:26 *13:30 0.00420895
26 *12:26 *20:13 0.00176595
27 *12:26 *20:17 0.000135956
28 *2427:A *2429:A 0.000643678
29 *2427:A *12:26 0
30 *11:11 *12:11 0.000691442
31 *11:36 *12:26 0
*RES
1 pad_ui_in[4] *12:11 3.0824 
2 *12:11 *2429:A 36.0975 
3 *12:11 *12:26 48.1725 
4 *12:26 *2520:DIODE 3.6 
5 *12:26 *2477:A 38.175 
*END

*D_NET *13 0.0250752
*CONN
*P pad_ui_in[5] I
*I *2479:A I *D sky130_fd_sc_hd__and2_2
*I *2521:DIODE I *D sky130_fd_sc_hd__diode_2
*I *2431:A I *D sky130_fd_sc_hd__and2_2
*CAP
1 pad_ui_in[5] 0.000458804
2 *2479:A 0.00209675
3 *2521:DIODE 4.43379e-05
4 *2431:A 0.00188003
5 *13:30 0.00411209
6 *13:13 0.00430984
7 *2431:A *2421:B 0.000349592
8 *2431:A *2434:A 0
9 *2431:A *2435:A 0.000772394
10 *2431:A *14:23 0.000393822
11 *2431:A *173:182 0
12 *2479:A *2479:B 8.88631e-05
13 *2479:A *2483:A 0
14 *2479:A *14:45 0
15 *2479:A *15:24 0
16 *2479:A *19:36 0
17 *2479:A *20:13 7.42511e-06
18 *2479:A *258:6 0.00230932
19 *13:13 *2437:A 6.06913e-06
20 *13:13 *14:11 0.000558408
21 *13:13 *14:23 0.000209192
22 *13:13 *15:13 0.000126738
23 *13:30 *14:45 0
24 *2421:A *2431:A 0.00190457
25 *2429:A *13:13 4.88008e-05
26 *2477:A *2479:A 0.000201335
27 *2477:A *13:30 0.000189426
28 *12:11 *13:13 0.000780814
29 *12:26 *13:13 1.7635e-05
30 *12:26 *13:30 0.00420895
*RES
1 pad_ui_in[5] *13:13 3.91357 
2 *13:13 *2431:A 42.535 
3 *13:13 *13:30 50.085 
4 *13:30 *2521:DIODE 4.05 
5 *13:30 *2479:A 44.7 
*END

*D_NET *14 0.0265651
*CONN
*P pad_ui_in[6] I
*I *2522:DIODE I *D sky130_fd_sc_hd__diode_2
*I *2481:A I *D sky130_fd_sc_hd__and2_2
*I *2433:A I *D sky130_fd_sc_hd__and2_2
*CAP
1 pad_ui_in[6] 0.000483519
2 *2522:DIODE 0
3 *2481:A 2.75375e-05
4 *2433:A 1.03511e-05
5 *14:45 0.00206157
6 *14:34 0.00307925
7 *14:23 0.00572059
8 *14:11 0.00520361
9 *2433:A spine_bot_iw[20] 2.05571e-05
10 *2433:A *173:182 8.7152e-06
11 *2481:A *16:53 0.000201508
12 *2481:A *203:147 7.66083e-05
13 *2481:A *203:149 0.0001249
14 *14:11 *15:13 0.000435627
15 *14:11 *16:11 0.000136544
16 *14:23 spine_bot_iw[10] 4.12303e-05
17 *14:23 spine_bot_iw[3] 2.20023e-05
18 *14:23 spine_bot_iw[9] 4.21127e-05
19 *14:23 *2435:A 0.000282171
20 *14:23 *2437:A 0.00145279
21 *14:23 *2534:CLK 0.000127531
22 *14:23 *15:13 5.98468e-05
23 *14:23 *15:24 7.12243e-05
24 *14:34 spine_bot_iw[20] 0.000323357
25 *14:34 spine_bot_iw[22] 0
26 *14:34 *2439:A 0
27 *14:34 *2440:A 0
28 *14:34 *2441:A 1.17114e-05
29 *14:34 *2442:A 0.00011379
30 *14:34 *2443:A 0
31 *14:34 *2444:A 0
32 *14:34 *2540:RESET_B 0
33 *14:34 *2541:CLK 0.000164686
34 *14:34 *2542:CLK 0
35 *14:45 *15:24 0.00461324
36 *2421:A *14:23 0.000258635
37 *2429:A *14:23 0
38 *2431:A *14:23 0.000393822
39 *2479:A *14:45 0
40 *11:11 *14:23 8.85816e-05
41 *12:11 *14:11 0.000119947
42 *12:11 *14:23 1.98899e-05
43 *13:13 *14:11 0.000558408
44 *13:13 *14:23 0.000209192
45 *13:30 *14:45 0
*RES
1 pad_ui_in[6] *14:11 3.28507 
2 *14:11 *14:23 9.27233 
3 *14:23 *2433:A 3.8325 
4 *14:23 *14:34 52.7625 
5 *14:34 *2481:A 5.43 
6 *14:11 *14:45 52.5075 
7 *14:45 *2522:DIODE 3.6 
*END

*D_NET *15 0.0252421
*CONN
*P pad_ui_in[7] I
*I *2523:DIODE I *D sky130_fd_sc_hd__diode_2
*I *2483:A I *D sky130_fd_sc_hd__and2_2
*I *2435:A I *D sky130_fd_sc_hd__and2_2
*CAP
1 pad_ui_in[7] 0.000506739
2 *2523:DIODE 0
3 *2483:A 0.00276945
4 *2435:A 0.00156175
5 *15:28 0.00285818
6 *15:24 0.00210274
7 *15:13 0.0040825
8 *2435:A *2421:B 0.000349592
9 *2435:A *2435:B 6.97118e-05
10 *2435:A *2534:CLK 0.00107481
11 *2483:A spine_top_iw[16] 8.23457e-05
12 *2483:A *19:36 0.000139933
13 *15:13 *2437:A 0.000289313
14 *15:13 *16:11 0.000533618
15 *15:24 *16:30 0
16 *15:24 *19:36 0
17 *15:24 *19:38 0.000115796
18 *15:24 *19:46 0.000166005
19 *15:28 *16:53 5.0751e-05
20 *2421:A *2435:A 0.00212768
21 *2429:A *15:13 0
22 *2431:A *2435:A 0.000772394
23 *2479:A *2483:A 0
24 *2479:A *15:24 0
25 *13:13 *15:13 0.000126738
26 *14:11 *15:13 0.000435627
27 *14:23 *2435:A 0.000282171
28 *14:23 *15:13 5.98468e-05
29 *14:23 *15:24 7.12243e-05
30 *14:45 *15:24 0.00461324
*RES
1 pad_ui_in[7] *15:13 4.36783 
2 *15:13 *2435:A 42.345 
3 *15:13 *15:24 53.91 
4 *15:24 *15:28 3.14 
5 *15:28 *2483:A 46.325 
6 *15:28 *2523:DIODE 1.6 
*END

*D_NET *16 0.0266445
*CONN
*P pad_ui_in[8] I
*I *2485:A I *D sky130_fd_sc_hd__and2_2
*I *2524:DIODE I *D sky130_fd_sc_hd__diode_2
*I *2437:A I *D sky130_fd_sc_hd__and2_2
*CAP
1 pad_ui_in[8] 0.000638921
2 *2485:A 5.01408e-05
3 *2524:DIODE 0
4 *2437:A 0.00379175
5 *16:53 0.00221591
6 *16:30 0.004566
7 *16:11 0.0068309
8 *2437:A spine_bot_iw[11] 0
9 *2437:A spine_bot_iw[12] 8.1472e-05
10 *2437:A spine_bot_iw[13] 0
11 *2437:A spine_bot_iw[15] 0.000122749
12 *2437:A spine_bot_iw[17] 7.27954e-05
13 *2437:A spine_bot_iw[18] 1.00909e-05
14 *2437:A spine_bot_iw[20] 4.90855e-05
15 *2437:A spine_bot_iw[2] 4.89679e-05
16 *2437:A spine_bot_iw[4] 0
17 *2437:A spine_bot_iw[6] 1.33934e-05
18 *2437:A spine_bot_iw[7] 0
19 *2437:A spine_bot_iw[8] 4.57523e-06
20 *2437:A *2436:A 1.00941e-05
21 *2485:A *2485:B 0.00012657
22 *2485:A *203:149 1.91521e-05
23 *16:30 *2441:A 0
24 *16:30 *18:13 0
25 *16:30 *19:36 0.00117072
26 *16:30 *19:38 0
27 *16:30 *19:46 0
28 *16:53 *2477:B 2.05056e-05
29 *16:53 *18:13 0
30 *16:53 *19:36 0.00016911
31 *16:53 *203:145 5.05297e-06
32 *16:53 *203:147 0.000207263
33 *16:53 *203:149 2.6189e-05
34 *2427:A *2437:A 0.000241421
35 *2429:A *2437:A 0.000191982
36 *2477:A *16:53 0.00328906
37 *2481:A *16:53 0.000201508
38 *13:13 *2437:A 6.06913e-06
39 *14:11 *16:11 0.000136544
40 *14:23 *2437:A 0.00145279
41 *15:13 *2437:A 0.000289313
42 *15:13 *16:11 0.000533618
43 *15:24 *16:30 0
44 *15:28 *16:53 5.0751e-05
*RES
1 pad_ui_in[8] *16:11 3.19893 
2 *16:11 *2437:A 14.2988 
3 *16:11 *16:30 48.1725 
4 *16:30 *2524:DIODE 3.6 
5 *16:30 *16:53 49.2275 
6 *16:53 *2485:A 2.9125 
*END

*D_NET *17 0.0298167
*CONN
*P pad_ui_in[9] I
*I *2525:DIODE I *D sky130_fd_sc_hd__diode_2
*I *2439:A I *D sky130_fd_sc_hd__and2_2
*I *2487:A I *D sky130_fd_sc_hd__and2_2
*CAP
1 pad_ui_in[9] 0.00052146
2 *2525:DIODE 0
3 *2439:A 0.00229839
4 *2487:A 0.00208483
5 *17:42 0.00441564
6 *17:40 0.00211725
7 *17:9 0.00260629
8 *2439:A *2441:A 0.00458887
9 *2439:A *2445:A 0.000367129
10 *2487:A pad_uio_oe_n[0] 0
11 *2487:A pad_uio_out[0] 0.000108322
12 *2487:A spine_top_iw[10] 4.7371e-05
13 *2487:A spine_top_iw[11] 0.000215715
14 *2487:A spine_top_iw[12] 0
15 *2487:A spine_top_iw[1] 0
16 *2487:A spine_top_iw[2] 2.25816e-05
17 *2487:A spine_top_iw[3] 2.38558e-05
18 *2487:A spine_top_iw[4] 4.3249e-05
19 *2487:A spine_top_iw[5] 2.38558e-05
20 *2487:A *2489:A 0.00373637
21 *2487:A *2627:A 0.000262387
22 *2487:A *2628:A 0.000388417
23 *2487:A *2661:A 4.30837e-05
24 *2487:A *2663:A 0
25 *2487:A *18:11 5.26754e-05
26 *2487:A *19:9 0
27 *17:42 pad_uio_out[0] 0
28 *2469:A *2487:A 0.000101404
29 *8:13 *2487:A 5.83844e-05
30 *8:13 *17:9 0.000693247
31 *8:13 *17:42 1.79536e-05
32 *8:15 *2439:A 0.000286266
33 *8:15 *17:42 0.00469172
34 *14:34 *2439:A 0
*RES
1 pad_ui_in[9] *17:9 2.3848 
2 *17:9 *2487:A 13.3836 
3 *17:9 *17:40 0.5 
4 *17:40 *17:42 54.0375 
5 *17:42 *2439:A 15.5629 
6 *17:42 *2525:DIODE 3.6 
*END

*D_NET *18 0.0303376
*CONN
*P pad_uio_in[0] I
*I *2489:A I *D sky130_fd_sc_hd__and2_2
*I *2526:DIODE I *D sky130_fd_sc_hd__diode_2
*I *2441:A I *D sky130_fd_sc_hd__and2_2
*CAP
1 pad_uio_in[0] 0.00057035
2 *2489:A 0.00265346
3 *2526:DIODE 0
4 *2441:A 0.00304809
5 *18:13 0.00608951
6 *18:11 0.00626523
7 *2441:A *2447:A 0.000325843
8 *2441:A *19:46 0.000296721
9 *2441:A *22:44 0.000128382
10 *2441:A *173:107 0.000140698
11 *2489:A pad_uio_oe_n[1] 1.01674e-05
12 *2489:A pad_uio_oe_n[2] 0.000156093
13 *2489:A pad_uio_out[0] 6.63219e-06
14 *2489:A pad_uio_out[1] 0
15 *2489:A pad_uio_out[2] 0
16 *2489:A pad_uio_out[3] 0
17 *2489:A spine_top_iw[0] 0
18 *2489:A spine_top_iw[13] 8.8537e-05
19 *2489:A spine_top_iw[17] 1.17114e-05
20 *2489:A spine_top_iw[20] 0
21 *2489:A spine_top_iw[21] 0
22 *2489:A *2627:A 0
23 *2489:A *2628:A 0.000955283
24 *2489:A *2659:A 0
25 *2489:A *22:17 4.2145e-05
26 *18:11 pad_uio_out[0] 0.00034125
27 *18:11 *19:9 0
28 *2423:A *2441:A 0
29 *2439:A *2441:A 0.00458887
30 *2471:A *2489:A 0
31 *2471:A *18:13 0
32 *2487:A *2489:A 0.00373637
33 *2487:A *18:11 5.26754e-05
34 *8:13 *18:11 1.09801e-05
35 *8:15 *2489:A 0
36 *9:11 *18:11 0.000806896
37 *9:13 *2441:A 0
38 *9:13 *18:13 0
39 *14:34 *2441:A 1.17114e-05
40 *16:30 *2441:A 0
41 *16:30 *18:13 0
42 *16:53 *18:13 0
*RES
1 pad_uio_in[0] *18:11 3.28507 
2 *18:11 *18:13 50.9775 
3 *18:13 *2441:A 15.8398 
4 *18:13 *2526:DIODE 3.6 
5 *18:11 *2489:A 15.0148 
*END

*D_NET *19 0.0302469
*CONN
*P pad_uio_in[1] I
*I *2527:DIODE I *D sky130_fd_sc_hd__diode_2
*I *2443:A I *D sky130_fd_sc_hd__and2_2
*I *2491:A I *D sky130_fd_sc_hd__and2_2
*CAP
1 pad_uio_in[1] 0.000816845
2 *2527:DIODE 0
3 *2443:A 7.96673e-05
4 *2491:A 0.00299046
5 *19:46 0.00324481
6 *19:38 0.00329358
7 *19:36 0.00237872
8 *19:9 0.00605759
9 *2443:A *2442:A 2.67022e-05
10 *2443:A *2444:A 0
11 *2491:A spine_top_iw[14] 0.000394872
12 *2491:A spine_top_iw[15] 8.47837e-05
13 *2491:A spine_top_iw[16] 6.50303e-05
14 *2491:A spine_top_iw[18] 0.000226427
15 *2491:A spine_top_iw[19] 0
16 *2491:A spine_top_iw[6] 0.000131643
17 *2491:A *2493:A 0
18 *2491:A *2627:A 0.00336169
19 *2491:A *2659:A 0.000109836
20 *2491:A *20:11 0.000442666
21 *2491:A *21:11 0.000235105
22 *19:9 pad_uio_oe_n[0] 0.000143874
23 *19:9 pad_uio_oe_n[1] 3.114e-05
24 *19:9 pad_uio_out[0] 4.60918e-05
25 *19:9 pad_uio_out[1] 8.2946e-05
26 *19:9 *2627:A 5.91244e-05
27 *19:9 *20:11 0
28 *19:46 *22:44 0.00311245
29 *2423:A *19:46 0.000772565
30 *2441:A *19:46 0.000296721
31 *2479:A *19:36 0
32 *2483:A *19:36 0.000139933
33 *2487:A *19:9 0
34 *9:11 *19:9 0
35 *14:34 *2443:A 0
36 *15:24 *19:36 0
37 *15:24 *19:38 0.000115796
38 *15:24 *19:46 0.000166005
39 *16:30 *19:36 0.00117072
40 *16:30 *19:38 0
41 *16:30 *19:46 0
42 *16:53 *19:36 0.00016911
43 *18:11 *19:9 0
*RES
1 pad_uio_in[1] *19:9 2.81293 
2 *19:9 *2491:A 13.915 
3 *19:9 *19:36 48.365 
4 *19:36 *19:38 3.1575 
5 *19:38 *19:46 49.42 
6 *19:46 *2443:A 4.98 
7 *19:38 *2527:DIODE 3.6 
*END

*D_NET *20 0.0282291
*CONN
*P pad_uio_in[2] I
*I *2493:A I *D sky130_fd_sc_hd__and2_2
*I *2528:DIODE I *D sky130_fd_sc_hd__diode_2
*I *2445:A I *D sky130_fd_sc_hd__and2_2
*CAP
1 pad_uio_in[2] 0.000673822
2 *2493:A 0.00290659
3 *2528:DIODE 0
4 *2445:A 0.00307938
5 *20:17 0.00315078
6 *20:13 0.0024714
7 *20:11 0.00598042
8 *2445:A *2447:A 0.00263926
9 *2493:A pad_uio_oe_n[2] 0
10 *2493:A spine_top_iw[24] 4.18603e-06
11 *2493:A *2628:A 0.000119831
12 *2493:A *2661:A 0.000958088
13 *20:11 pad_uio_oe_n[1] 0.00022963
14 *20:11 pad_uio_oe_n[2] 5.12004e-05
15 *20:11 pad_uio_out[2] 8.2946e-05
16 *20:11 *2627:A 0.000421033
17 *20:11 *21:11 0
18 *20:13 pad_uio_oe_n[2] 0
19 *20:13 *21:13 0
20 *2439:A *2445:A 0.000367129
21 *2471:A *2493:A 0.00245307
22 *2477:A *20:13 0.000215928
23 *2479:A *20:13 7.42511e-06
24 *2491:A *2493:A 0
25 *2491:A *20:11 0.000442666
26 *11:36 *2445:A 0
27 *11:36 *20:13 0
28 *11:36 *20:17 0
29 *12:26 *2445:A 7.23602e-05
30 *12:26 *20:13 0.00176595
31 *12:26 *20:17 0.000135956
32 *19:9 *20:11 0
*RES
1 pad_uio_in[2] *20:11 3.28507 
2 *20:11 *20:13 51.615 
3 *20:13 *20:17 1.9575 
4 *20:17 *2445:A 44.865 
5 *20:17 *2528:DIODE 3.6 
6 *20:11 *2493:A 47.8525 
*END

*D_NET *21 0.0250176
*CONN
*P pad_uio_in[3] I
*I *2447:A I *D sky130_fd_sc_hd__and2_2
*I *2495:A I *D sky130_fd_sc_hd__and2_2
*I *2529:DIODE I *D sky130_fd_sc_hd__diode_2
*CAP
1 pad_uio_in[3] 0.000741234
2 *2447:A 0.00133147
3 *2495:A 0.00350671
4 *2529:DIODE 0.00147363
5 *21:13 0.00186735
6 *21:11 0.00597313
7 *2447:A *2443:B 0
8 *2447:A *2538:CLK 2.75229e-05
9 *2447:A *173:66 0.000164874
10 *2447:A *173:70 0.000255161
11 *2447:A *173:79 9.51101e-05
12 *2447:A *173:88 9.93004e-05
13 *2447:A *173:107 0.000514772
14 *2447:A *227:14 0.000309648
15 *2495:A pad_uio_oe_n[2] 1.23247e-05
16 *2495:A *2512:A 1.83847e-05
17 *2495:A *2629:A 0.00030984
18 *2495:A *281:12 2.41376e-05
19 *21:11 pad_uio_oe_n[2] 0.000311976
20 *21:11 pad_uio_out[3] 0.000168703
21 *21:13 pad_uio_oe_n[2] 1.59477e-05
22 *21:13 pad_uio_oe_n[3] 0
23 *2441:A *2447:A 0.000325843
24 *2445:A *2447:A 0.00263926
25 *2473:A *21:13 0.000411486
26 *2491:A *21:11 0.000235105
27 *10:28 *2447:A 0
28 *10:28 *21:13 0.00295112
29 *11:36 *21:13 0.0012336
30 *20:11 *21:11 0
31 *20:13 *21:13 0
*RES
1 pad_uio_in[3] *21:11 3.166 
2 *21:11 *21:13 50.7225 
3 *21:13 *2529:DIODE 5.085 
4 *21:11 *2495:A 46.8325 
5 *2529:DIODE *2447:A 47.595 
*END

*D_NET *22 0.0242026
*CONN
*P pad_uio_in[4] I
*I *2530:DIODE I *D sky130_fd_sc_hd__diode_2
*I *2449:A I *D sky130_fd_sc_hd__and2_2
*I *2497:A I *D sky130_fd_sc_hd__and2_2
*CAP
1 pad_uio_in[4] 0.000848953
2 *2530:DIODE 0
3 *2449:A 0
4 *2497:A 0.00181196
5 *22:44 0.00168091
6 *22:30 0.00491832
7 *22:28 0.00323741
8 *22:17 0.00266091
9 *2497:A *203:82 0.00035014
10 *2497:A *203:91 0.000152758
11 *2497:A *203:102 0.000148639
12 *2497:A *203:109 0.000199407
13 *2497:A *203:192 0.000265143
14 *2497:A *203:205 0.000567818
15 *2497:A *203:212 0.000465065
16 *2497:A *280:14 2.61654e-05
17 *22:17 pad_uio_oe_n[3] 0.000152083
18 *22:17 pad_uio_out[3] 5.6003e-06
19 *22:17 pad_uio_out[4] 5.36723e-05
20 *22:17 spine_top_iw[0] 0
21 *22:30 pad_uio_oe_n[3] 0
22 *22:30 *2630:A 0
23 *22:30 *2661:A 0
24 *22:30 *2662:A 7.48816e-05
25 *22:44 spine_bot_iw[21] 4.80285e-05
26 *22:44 *2446:A 0
27 *22:44 *2448:A 3.68596e-05
28 *22:44 *2539:RESET_B 0
29 *22:44 *173:59 0.000124895
30 *22:44 *173:107 8.65961e-05
31 *22:44 *173:118 0.000421062
32 *2423:A *22:44 0.00117533
33 *2441:A *22:44 0.000128382
34 *2469:A *2497:A 0.00102555
35 *2469:A *22:17 0.000381473
36 *2489:A *22:17 4.2145e-05
37 *19:46 *22:44 0.00311245
*RES
1 pad_uio_in[4] *22:17 8.90697 
2 *22:17 *2497:A 35.875 
3 *22:17 *22:28 2 
4 *22:28 *22:30 53.4 
5 *22:30 *22:44 48.585 
6 *22:44 *2449:A 1.6 
7 *22:30 *2530:DIODE 3.6 
*END

*D_NET *23 0.0281386
*CONN
*P pad_uio_in[5] I
*I *2499:A I *D sky130_fd_sc_hd__and2_2
*I *2451:A I *D sky130_fd_sc_hd__and2_2
*I *2531:DIODE I *D sky130_fd_sc_hd__diode_2
*CAP
1 pad_uio_in[5] 0.000641085
2 *2499:A 6.79374e-05
3 *2451:A 0.0016562
4 *2531:DIODE 0
5 *23:59 0.00294523
6 *23:19 0.0016777
7 *23:15 0.00264336
8 *23:13 0.00614023
9 *2451:A *2456:A 4.60123e-05
10 *2451:A *2690:A1 2.16833e-05
11 *2451:A *2690:S 0.00155481
12 *2451:A *24:68 0.00106041
13 *2451:A *25:56 0.00137471
14 *2451:A *173:18 8.25803e-05
15 *2499:A *2501:A 0
16 *2499:A *2502:A 8.64421e-05
17 *2499:A *203:38 6.69608e-06
18 *2499:A *203:45 9.47017e-05
19 *23:13 pad_uio_oe_n[4] 0.000310945
20 *23:13 pad_uio_out[5] 0.000308766
21 *23:13 *2608:A 0.000344577
22 *23:13 *2624:A0 0
23 *23:13 *2624:S 4.11198e-05
24 *23:13 *2625:A1 8.82909e-05
25 *23:15 spine_top_ow[24] 0
26 *23:15 *2608:A 0.000139238
27 *23:15 *2616:A 0.000111088
28 *23:15 *2623:A0 0
29 *23:15 *2623:S 0
30 *23:15 *2624:A0 0
31 *23:15 *2625:A1 7.4027e-05
32 *23:15 *2626:A0 0.000194092
33 *23:15 *2626:A1 4.05358e-05
34 *23:15 *2658:A0 0
35 *23:15 *2696:A 0.000133956
36 *23:15 *96:8 0.00222218
37 *23:15 *152:20 0
38 *23:19 *24:68 3.00381e-05
39 *23:59 *2501:A 0.00144696
40 *23:59 *2636:A 0
41 *23:59 *2638:A 0.00012657
42 *23:59 *2654:A0 3.59531e-06
43 *23:59 *2654:A1 4.05358e-05
44 *23:59 *2658:A0 0.000348899
45 *23:59 *2689:A1 0
46 *23:59 *24:44 0.000425833
47 *23:59 *139:8 4.18603e-06
48 *23:59 *203:38 1.31297e-05
49 *23:59 *238:74 0.000417289
50 *23:59 *238:76 0.000225094
51 *23:59 *238:78 0.000422019
52 *23:59 *238:91 3.65279e-05
53 *23:59 *238:100 1.19928e-05
54 *23:59 *280:12 7.67415e-06
55 *23:59 *304:32 0.000469637
*RES
1 pad_uio_in[5] *23:13 6.59523 
2 *23:13 *23:15 60.54 
3 *23:15 *23:19 2.45 
4 *23:19 *2531:DIODE 1.6 
5 *23:19 *2451:A 47.735 
6 *23:13 *23:59 49.53 
7 *23:59 *2499:A 3.445 
*END

*D_NET *24 0.0264912
*CONN
*P pad_uio_in[6] I
*I *2453:A I *D sky130_fd_sc_hd__and2_2
*I *2501:A I *D sky130_fd_sc_hd__and2_2
*I *2532:DIODE I *D sky130_fd_sc_hd__diode_2
*CAP
1 pad_uio_in[6] 0.000698334
2 *2453:A 0
3 *2501:A 0.000328824
4 *2532:DIODE 0.00189753
5 *24:68 0.00189753
6 *24:44 0.00208462
7 *24:15 0.00360053
8 *24:13 0.00605467
9 *2501:A *2649:A 0.00020378
10 *2501:A *2650:A 5.05521e-05
11 *2501:A *2652:A0 5.486e-05
12 *2501:A *170:70 2.96334e-05
13 *2501:A *280:12 0.000261056
14 *24:13 pad_uio_oe_n[5] 5.36723e-05
15 *24:13 pad_uio_out[5] 0.000125781
16 *24:13 pad_uio_out[6] 5.81169e-05
17 *24:13 *2624:A0 0
18 *24:13 *2632:A 0
19 *24:13 *2666:A 0
20 *24:15 pad_uio_out[5] 0.000490467
21 *24:15 *2624:A0 0
22 *24:15 *2625:A0 0
23 *24:15 *2666:A 0
24 *24:44 *2397:A 0.00031651
25 *24:44 *2401:A 9.45943e-05
26 *24:44 *2401:TE_B 2.45351e-05
27 *24:44 *2620:A1 0
28 *24:44 *2624:A1 9.02174e-05
29 *24:44 *2637:A 7.22354e-05
30 *24:44 *2692:A 0.000321313
31 *24:44 *140:8 8.65905e-05
32 *24:44 *144:22 8.65961e-05
33 *24:44 *146:19 0
34 *24:44 *170:70 0.0003372
35 *24:44 *170:72 4.21973e-05
36 *24:44 *170:76 3.66286e-05
37 *24:44 *170:78 0.000186388
38 *24:44 *170:82 0.000424625
39 *24:44 *171:51 0.000104537
40 *24:44 *171:106 0.000467074
41 *24:68 *2360:A 8.64421e-05
42 *24:68 *2368:A 8.69583e-05
43 *24:68 *2680:A 0.000237243
44 *24:68 *2690:A0 9.13951e-05
45 *24:68 *25:56 0.00228003
46 *24:68 *84:22 7.44375e-05
47 *24:68 *85:22 0
48 *24:68 *166:10 9.02259e-05
49 *2451:A *24:68 0.00106041
50 *2499:A *2501:A 0
51 *23:19 *24:68 3.00381e-05
52 *23:59 *2501:A 0.00144696
53 *23:59 *24:44 0.000425833
*RES
1 pad_uio_in[6] *24:13 7.86003 
2 *24:13 *24:15 62.58 
3 *24:15 *2532:DIODE 3.6 
4 *24:13 *24:44 39.06 
5 *24:44 *2501:A 15.175 
6 *2532:DIODE *24:68 49.19 
7 *24:68 *2453:A 1.6 
*END

*D_NET *25 0.0294233
*CONN
*P pad_uio_in[7] I
*I *2455:A I *D sky130_fd_sc_hd__and2_2
*I *2503:A I *D sky130_fd_sc_hd__and2_2
*I *2533:DIODE I *D sky130_fd_sc_hd__diode_2
*CAP
1 pad_uio_in[7] 0.00104513
2 *2455:A 0
3 *2503:A 0.00037992
4 *2533:DIODE 0.00310171
5 *25:56 0.00310171
6 *25:36 0.00303126
7 *25:13 0.00366146
8 *25:11 0.00735793
9 *2503:A *2503:B 4.77757e-05
10 *2503:A *2627:A 0.000119831
11 *2503:A *2652:S 4.77757e-05
12 *2503:A *2653:A0 2.16917e-05
13 *2503:A *2653:A1 4.2068e-05
14 *2503:A *238:51 0.000194694
15 *2503:A *238:267 0.000273059
16 *2503:A *279:8 0.000367909
17 *2503:A *281:12 0.000150629
18 *2503:A *282:8 0.00173624
19 *2503:A *304:32 1.34503e-05
20 *25:11 pad_uio_oe_n[6] 5.36723e-05
21 *25:11 pad_uio_oe_n[7] 6.4603e-05
22 *25:11 pad_uio_out[6] 5.6003e-06
23 *25:11 pad_uio_out[7] 2.43986e-05
24 *25:11 pad_uo_out[1] 0
25 *25:13 pad_uio_out[5] 0
26 *25:36 *2408:TE_B 0.000109839
27 *25:36 *2654:A0 3.98757e-05
28 *25:36 *2689:A0 1.1392e-05
29 *25:36 *2689:A1 0.000135884
30 *25:36 *170:88 6.71882e-05
31 *25:36 *238:45 2.65814e-06
32 *25:36 *283:16 8.49205e-05
33 *25:36 *309:16 0.000474254
34 *2451:A *25:56 0.00137471
35 *3:24 *25:13 0
36 *24:68 *25:56 0.00228003
*RES
1 pad_uio_in[7] *25:11 3.39907 
2 *25:11 *25:13 58.8825 
3 *25:13 *2533:DIODE 3.6 
4 *25:11 *25:36 39.4875 
5 *25:36 *2503:A 18.265 
6 *2533:DIODE *25:56 48.76 
7 *25:56 *2455:A 1.6 
*END

*D_NET *26 0.000753596
*CONN
*P pad_uio_oe_n[0] O
*I *2627:Y O *D sky130_fd_sc_hd__bufinv_8
*CAP
1 pad_uio_oe_n[0] 0.000235147
2 *2627:Y 0.000235147
3 pad_uio_oe_n[0] pad_uio_out[0] 0.000139429
4 *2487:A pad_uio_oe_n[0] 0
5 *19:9 pad_uio_oe_n[0] 0.000143874
*RES
1 *2627:Y pad_uio_oe_n[0] 7.1723 
*END

*D_NET *27 0.000759617
*CONN
*P pad_uio_oe_n[1] O
*I *2628:Y O *D sky130_fd_sc_hd__bufinv_8
*CAP
1 pad_uio_oe_n[1] 0.000200264
2 *2628:Y 0.000200264
3 pad_uio_oe_n[1] pad_uio_out[1] 8.81509e-05
4 *2489:A pad_uio_oe_n[1] 1.01674e-05
5 *19:9 pad_uio_oe_n[1] 3.114e-05
6 *20:11 pad_uio_oe_n[1] 0.00022963
*RES
1 *2628:Y pad_uio_oe_n[1] 5.84243 
*END

*D_NET *28 0.00215381
*CONN
*P pad_uio_oe_n[2] O
*I *2629:Y O *D sky130_fd_sc_hd__bufinv_8
*CAP
1 pad_uio_oe_n[2] 0.000716812
2 *2629:Y 0.000716812
3 pad_uio_oe_n[2] pad_uio_oe_n[3] 0
4 pad_uio_oe_n[2] pad_uio_out[2] 8.2946e-05
5 pad_uio_oe_n[2] *2628:A 8.96954e-05
6 pad_uio_oe_n[2] *2660:A 0
7 *2489:A pad_uio_oe_n[2] 0.000156093
8 *2493:A pad_uio_oe_n[2] 0
9 *2495:A pad_uio_oe_n[2] 1.23247e-05
10 *20:11 pad_uio_oe_n[2] 5.12004e-05
11 *20:13 pad_uio_oe_n[2] 0
12 *21:11 pad_uio_oe_n[2] 0.000311976
13 *21:13 pad_uio_oe_n[2] 1.59477e-05
*RES
1 *2629:Y pad_uio_oe_n[2] 11.5504 
*END

*D_NET *29 0.00238345
*CONN
*P pad_uio_oe_n[3] O
*I *2630:Y O *D sky130_fd_sc_hd__bufinv_8
*CAP
1 pad_uio_oe_n[3] 0.00108885
2 *2630:Y 0.00108885
3 pad_uio_oe_n[3] pad_uio_out[3] 5.36723e-05
4 pad_uio_oe_n[3] pad_uio_out[4] 0
5 pad_uio_oe_n[3] *2628:A 0
6 pad_uio_oe_n[3] *2662:A 0
7 pad_uio_oe_n[2] pad_uio_oe_n[3] 0
8 *21:13 pad_uio_oe_n[3] 0
9 *22:17 pad_uio_oe_n[3] 0.000152083
10 *22:30 pad_uio_oe_n[3] 0
*RES
1 *2630:Y pad_uio_oe_n[3] 19.0737 
*END

*D_NET *30 0.00330872
*CONN
*P pad_uio_oe_n[4] O
*I *2631:Y O *D sky130_fd_sc_hd__bufinv_8
*CAP
1 pad_uio_oe_n[4] 0.00097364
2 *2631:Y 0.00097364
3 pad_uio_oe_n[4] pad_uio_out[5] 5.11994e-05
4 pad_uio_oe_n[4] spine_top_ow[24] 0
5 pad_uio_oe_n[4] *2596:DIODE 0
6 pad_uio_oe_n[4] *2624:A0 0.000453621
7 pad_uio_oe_n[4] *2625:A0 0.000339553
8 pad_uio_oe_n[4] *2634:A 0.000206123
9 *23:13 pad_uio_oe_n[4] 0.000310945
*RES
1 *2631:Y pad_uio_oe_n[4] 15.7149 
*END

*D_NET *31 0.00141604
*CONN
*P pad_uio_oe_n[5] O
*I *2632:Y O *D sky130_fd_sc_hd__bufinv_8
*CAP
1 pad_uio_oe_n[5] 0.000554456
2 *2632:Y 0.000554456
3 pad_uio_oe_n[5] pad_uio_out[5] 0.000247257
4 pad_uio_oe_n[5] pad_uio_out[6] 6.20274e-06
5 pad_uio_oe_n[5] *2666:A 0
6 *24:13 pad_uio_oe_n[5] 5.36723e-05
*RES
1 *2632:Y pad_uio_oe_n[5] 6.2199 
*END

*D_NET *32 0.00120092
*CONN
*P pad_uio_oe_n[6] O
*I *2633:Y O *D sky130_fd_sc_hd__bufinv_8
*CAP
1 pad_uio_oe_n[6] 0.000546789
2 *2633:Y 0.000546789
3 pad_uio_oe_n[6] pad_uio_oe_n[7] 0
4 pad_uio_oe_n[6] pad_uio_out[6] 5.36723e-05
5 pad_uio_oe_n[6] pad_uio_out[7] 0
6 pad_uio_oe_n[6] pad_uo_out[0] 0
7 *25:11 pad_uio_oe_n[6] 5.36723e-05
*RES
1 *2633:Y pad_uio_oe_n[6] 10.9137 
*END

*D_NET *33 0.00265029
*CONN
*P pad_uio_oe_n[7] O
*I *2634:Y O *D sky130_fd_sc_hd__bufinv_8
*CAP
1 pad_uio_oe_n[7] 0.000721937
2 *2634:Y 0.000721937
3 pad_uio_oe_n[7] pad_uio_out[7] 2.88432e-05
4 pad_uio_oe_n[7] pad_uo_out[0] 0.00110633
5 pad_uio_oe_n[7] pad_uo_out[1] 6.64159e-06
6 pad_uio_oe_n[6] pad_uio_oe_n[7] 0
7 *25:11 pad_uio_oe_n[7] 6.4603e-05
*RES
1 *2634:Y pad_uio_oe_n[7] 15.0258 
*END

*D_NET *34 0.00128056
*CONN
*P pad_uio_out[0] O
*I *2659:Y O *D sky130_fd_sc_hd__bufinv_8
*CAP
1 pad_uio_out[0] 0.000319416
2 *2659:Y 0.000319416
3 pad_uio_oe_n[0] pad_uio_out[0] 0.000139429
4 *2487:A pad_uio_out[0] 0.000108322
5 *2489:A pad_uio_out[0] 6.63219e-06
6 *17:42 pad_uio_out[0] 0
7 *18:11 pad_uio_out[0] 0.00034125
8 *19:9 pad_uio_out[0] 4.60918e-05
*RES
1 *2659:Y pad_uio_out[0] 6.61677 
*END

*D_NET *35 0.000689952
*CONN
*P pad_uio_out[1] O
*I *2660:Y O *D sky130_fd_sc_hd__bufinv_8
*CAP
1 pad_uio_out[1] 0.000259428
2 *2660:Y 0.000259428
3 pad_uio_oe_n[1] pad_uio_out[1] 8.81509e-05
4 *2489:A pad_uio_out[1] 0
5 *19:9 pad_uio_out[1] 8.2946e-05
*RES
1 *2660:Y pad_uio_out[1] 6.40983 
*END

*D_NET *36 0.000847126
*CONN
*P pad_uio_out[2] O
*I *2661:Y O *D sky130_fd_sc_hd__bufinv_8
*CAP
1 pad_uio_out[2] 0.000340617
2 *2661:Y 0.000340617
3 pad_uio_oe_n[2] pad_uio_out[2] 8.2946e-05
4 *2489:A pad_uio_out[2] 0
5 *20:11 pad_uio_out[2] 8.2946e-05
*RES
1 *2661:Y pad_uio_out[2] 6.58463 
*END

*D_NET *37 0.000821603
*CONN
*P pad_uio_out[3] O
*I *2662:Y O *D sky130_fd_sc_hd__bufinv_8
*CAP
1 pad_uio_out[3] 0.000296814
2 *2662:Y 0.000296814
3 pad_uio_out[3] *2660:A 0
4 pad_uio_oe_n[3] pad_uio_out[3] 5.36723e-05
5 *2489:A pad_uio_out[3] 0
6 *21:11 pad_uio_out[3] 0.000168703
7 *22:17 pad_uio_out[3] 5.6003e-06
*RES
1 *2662:Y pad_uio_out[3] 6.8067 
*END

*D_NET *38 0.000877188
*CONN
*P pad_uio_out[4] O
*I *2663:Y O *D sky130_fd_sc_hd__bufinv_8
*CAP
1 pad_uio_out[4] 0.000411758
2 *2663:Y 0.000411758
3 pad_uio_out[4] spine_top_iw[0] 0
4 pad_uio_out[4] *2661:A 0
5 pad_uio_oe_n[3] pad_uio_out[4] 0
6 *22:17 pad_uio_out[4] 5.36723e-05
*RES
1 *2663:Y pad_uio_out[4] 8.6187 
*END

*D_NET *39 0.00343179
*CONN
*P pad_uio_out[5] O
*I *2664:Y O *D sky130_fd_sc_hd__bufinv_8
*CAP
1 pad_uio_out[5] 0.00110416
2 *2664:Y 0.00110416
3 pad_uio_oe_n[4] pad_uio_out[5] 5.11994e-05
4 pad_uio_oe_n[5] pad_uio_out[5] 0.000247257
5 *23:13 pad_uio_out[5] 0.000308766
6 *24:13 pad_uio_out[5] 0.000125781
7 *24:15 pad_uio_out[5] 0.000490467
8 *25:13 pad_uio_out[5] 0
*RES
1 *2664:Y pad_uio_out[5] 16.6522 
*END

*D_NET *40 0.000702821
*CONN
*P pad_uio_out[6] O
*I *2665:Y O *D sky130_fd_sc_hd__bufinv_8
*CAP
1 pad_uio_out[6] 0.000289614
2 *2665:Y 0.000289614
3 pad_uio_oe_n[5] pad_uio_out[6] 6.20274e-06
4 pad_uio_oe_n[6] pad_uio_out[6] 5.36723e-05
5 *24:13 pad_uio_out[6] 5.81169e-05
6 *25:11 pad_uio_out[6] 5.6003e-06
*RES
1 *2665:Y pad_uio_out[6] 5.44557 
*END

*D_NET *41 0.000807785
*CONN
*P pad_uio_out[7] O
*I *2666:Y O *D sky130_fd_sc_hd__bufinv_8
*CAP
1 pad_uio_out[7] 0.000377272
2 *2666:Y 0.000377272
3 pad_uio_oe_n[6] pad_uio_out[7] 0
4 pad_uio_oe_n[7] pad_uio_out[7] 2.88432e-05
5 *25:11 pad_uio_out[7] 2.43986e-05
*RES
1 *2666:Y pad_uio_out[7] 9.43603 
*END

*D_NET *42 0.00320705
*CONN
*P pad_uo_out[0] O
*I *2691:Y O *D sky130_fd_sc_hd__bufinv_8
*CAP
1 pad_uo_out[0] 0.00090627
2 *2691:Y 0.00090627
3 pad_uo_out[0] pad_uo_out[1] 0.000288178
4 pad_uio_oe_n[6] pad_uo_out[0] 0
5 pad_uio_oe_n[7] pad_uo_out[0] 0.00110633
*RES
1 *2691:Y pad_uo_out[0] 19.6462 
*END

*D_NET *43 0.00115159
*CONN
*P pad_uo_out[1] O
*I *2692:Y O *D sky130_fd_sc_hd__bufinv_8
*CAP
1 pad_uo_out[1] 0.000267247
2 *2692:Y 0.000267247
3 pad_uo_out[1] pad_uo_out[2] 0.000322276
4 pad_uo_out[1] pad_uo_out[4] 0
5 pad_uio_oe_n[7] pad_uo_out[1] 6.64159e-06
6 pad_uo_out[0] pad_uo_out[1] 0.000288178
7 *25:11 pad_uo_out[1] 0
*RES
1 *2692:Y pad_uo_out[1] 6.07637 
*END

*D_NET *44 0.00186403
*CONN
*P pad_uo_out[2] O
*I *2693:Y O *D sky130_fd_sc_hd__bufinv_8
*CAP
1 pad_uo_out[2] 0.000614374
2 *2693:Y 0.000614374
3 pad_uo_out[2] pad_uo_out[3] 0.000313007
4 pad_uo_out[1] pad_uo_out[2] 0.000322276
*RES
1 *2693:Y pad_uo_out[2] 13.2408 
*END

*D_NET *45 0.00207538
*CONN
*P pad_uo_out[3] O
*I *2694:Y O *D sky130_fd_sc_hd__bufinv_8
*CAP
1 pad_uo_out[3] 0.000723202
2 *2694:Y 0.000723202
3 pad_uo_out[3] pad_uo_out[4] 0.000315968
4 pad_uo_out[2] pad_uo_out[3] 0.000313007
*RES
1 *2694:Y pad_uo_out[3] 15.0258 
*END

*D_NET *46 0.00285509
*CONN
*P pad_uo_out[4] O
*I *2695:Y O *D sky130_fd_sc_hd__bufinv_8
*CAP
1 pad_uo_out[4] 0.000896796
2 *2695:Y 0.000896796
3 pad_uo_out[4] pad_uo_out[5] 0.000745529
4 pad_uo_out[1] pad_uo_out[4] 0
5 pad_uo_out[3] pad_uo_out[4] 0.000315968
*RES
1 *2695:Y pad_uo_out[4] 15.7149 
*END

*D_NET *47 0.00264294
*CONN
*P pad_uo_out[5] O
*I *2696:Y O *D sky130_fd_sc_hd__bufinv_8
*CAP
1 pad_uo_out[5] 0.000878991
2 *2696:Y 0.000878991
3 pad_uo_out[5] pad_uo_out[6] 0.000139429
4 pad_uo_out[4] pad_uo_out[5] 0.000745529
*RES
1 *2696:Y pad_uo_out[5] 13.2883 
*END

*D_NET *48 0.00105664
*CONN
*P pad_uo_out[6] O
*I *2697:Y O *D sky130_fd_sc_hd__bufinv_8
*CAP
1 pad_uo_out[6] 0.000458605
2 *2697:Y 0.000458605
3 pad_uo_out[5] pad_uo_out[6] 0.000139429
*RES
1 *2697:Y pad_uo_out[6] 9.63403 
*END

*D_NET *49 0.00114228
*CONN
*P pad_uo_out[7] O
*I *2698:Y O *D sky130_fd_sc_hd__bufinv_8
*CAP
1 pad_uo_out[7] 0.000420631
2 *2698:Y 0.000420631
3 k_one pad_uo_out[7] 0
4 *3:13 pad_uo_out[7] 0.000301017
*RES
1 *2698:Y pad_uo_out[7] 7.26777 
*END

*D_NET *50 0.000639332
*CONN
*P spine_bot_iw[0] O
*I *2466:LO O *D sky130_fd_sc_hd__conb_1
*CAP
1 spine_bot_iw[0] 0.000286434
2 *2466:LO 0.000286434
3 spine_bot_iw[0] spine_bot_iw[1] 5.36632e-05
4 spine_bot_iw[0] spine_bot_iw[2] 1.28002e-05
*RES
1 *2466:LO spine_bot_iw[0] 7.2829 
*END

*D_NET *51 0.00475898
*CONN
*P spine_bot_iw[10] O
*I *2465:X O *D sky130_fd_sc_hd__buf_8
*CAP
1 spine_bot_iw[10] 0.00126028
2 *2465:X 0.00126028
3 spine_bot_iw[10] spine_bot_iw[11] 0.00011118
4 spine_bot_iw[10] spine_bot_iw[12] 5.51841e-05
5 spine_bot_iw[10] spine_bot_iw[9] 0.000519372
6 spine_bot_iw[10] *2424:A 0.000293719
7 spine_bot_iw[10] *2462:A 0.000476003
8 spine_bot_iw[10] *2463:A 0.000189291
9 spine_bot_iw[10] *2510:A 0.000225394
10 spine_bot_iw[10] *2535:CLK 0.000106824
11 spine_bot_iw[10] *2536:CLK 0
12 spine_bot_iw[10] *2537:CLK 0
13 spine_bot_iw[10] *2538:CLK 0.000179092
14 spine_bot_iw[10] *2538:RESET_B 0
15 spine_bot_iw[10] *173:107 4.11281e-05
16 *14:23 spine_bot_iw[10] 4.12303e-05
*RES
1 *2465:X spine_bot_iw[10] 25.9149 
*END

*D_NET *52 0.00255204
*CONN
*P spine_bot_iw[11] O
*I *2422:X O *D sky130_fd_sc_hd__buf_8
*CAP
1 spine_bot_iw[11] 0.00110591
2 *2422:X 0.00110591
3 spine_bot_iw[11] spine_bot_iw[12] 0.0001146
4 spine_bot_iw[11] spine_bot_iw[13] 4.09223e-05
5 spine_bot_iw[11] spine_bot_iw[4] 0
6 spine_bot_iw[11] spine_bot_iw[6] 3.16333e-05
7 spine_bot_iw[11] spine_bot_iw[7] 3.73195e-05
8 spine_bot_iw[11] spine_bot_iw[8] 4.56278e-06
9 spine_bot_iw[11] *173:124 0
10 spine_bot_iw[10] spine_bot_iw[11] 0.00011118
11 *2437:A spine_bot_iw[11] 0
*RES
1 *2422:X spine_bot_iw[11] 9.07477 
*END

*D_NET *53 0.00215667
*CONN
*P spine_bot_iw[12] O
*I *2424:X O *D sky130_fd_sc_hd__buf_8
*CAP
1 spine_bot_iw[12] 0.000818765
2 *2424:X 0.000818765
3 spine_bot_iw[12] spine_bot_iw[13] 0.000133248
4 spine_bot_iw[12] spine_bot_iw[15] 0
5 spine_bot_iw[12] *2534:CLK 0.000134634
6 spine_bot_iw[12] *2535:CLK 0
7 spine_bot_iw[12] *173:148 0
8 spine_bot_iw[10] spine_bot_iw[12] 5.51841e-05
9 spine_bot_iw[11] spine_bot_iw[12] 0.0001146
10 *2437:A spine_bot_iw[12] 8.1472e-05
*RES
1 *2424:X spine_bot_iw[12] 12.1964 
*END

*D_NET *54 0.00135716
*CONN
*P spine_bot_iw[13] O
*I *2426:X O *D sky130_fd_sc_hd__buf_8
*CAP
1 spine_bot_iw[13] 0.00044094
2 *2426:X 0.00044094
3 spine_bot_iw[13] spine_bot_iw[14] 5.51039e-05
4 spine_bot_iw[13] spine_bot_iw[15] 3.48408e-05
5 spine_bot_iw[13] *2426:A 0
6 spine_bot_iw[13] *2428:A 0.00021116
7 spine_bot_iw[11] spine_bot_iw[13] 4.09223e-05
8 spine_bot_iw[12] spine_bot_iw[13] 0.000133248
9 *2437:A spine_bot_iw[13] 0
*RES
1 *2426:X spine_bot_iw[13] 8.09017 
*END

*D_NET *55 0.000579989
*CONN
*P spine_bot_iw[14] O
*I *2428:X O *D sky130_fd_sc_hd__buf_8
*CAP
1 spine_bot_iw[14] 0.000233384
2 *2428:X 0.000233384
3 spine_bot_iw[14] spine_bot_iw[15] 5.81169e-05
4 spine_bot_iw[13] spine_bot_iw[14] 5.51039e-05
*RES
1 *2428:X spine_bot_iw[14] 6.52043 
*END

*D_NET *56 0.00126366
*CONN
*P spine_bot_iw[15] O
*I *2430:X O *D sky130_fd_sc_hd__buf_8
*CAP
1 spine_bot_iw[15] 0.000471461
2 *2430:X 0.000471461
3 spine_bot_iw[15] spine_bot_iw[16] 5.36632e-05
4 spine_bot_iw[15] spine_bot_iw[17] 5.13686e-05
5 spine_bot_iw[12] spine_bot_iw[15] 0
6 spine_bot_iw[13] spine_bot_iw[15] 3.48408e-05
7 spine_bot_iw[14] spine_bot_iw[15] 5.81169e-05
8 *2437:A spine_bot_iw[15] 0.000122749
*RES
1 *2430:X spine_bot_iw[15] 6.2841 
*END

*D_NET *57 0.000489613
*CONN
*P spine_bot_iw[16] O
*I *2432:X O *D sky130_fd_sc_hd__buf_8
*CAP
1 spine_bot_iw[16] 0.000188916
2 *2432:X 0.000188916
3 spine_bot_iw[16] spine_bot_iw[17] 5.81169e-05
4 spine_bot_iw[16] *2432:A 0
5 spine_bot_iw[15] spine_bot_iw[16] 5.36632e-05
*RES
1 *2432:X spine_bot_iw[16] 6.85563 
*END

*D_NET *58 0.0010719
*CONN
*P spine_bot_iw[17] O
*I *2434:X O *D sky130_fd_sc_hd__buf_8
*CAP
1 spine_bot_iw[17] 0.00029963
2 *2434:X 0.00029963
3 spine_bot_iw[17] spine_bot_iw[18] 0.000283724
4 spine_bot_iw[17] *2430:A 6.63219e-06
5 spine_bot_iw[15] spine_bot_iw[17] 5.13686e-05
6 spine_bot_iw[16] spine_bot_iw[17] 5.81169e-05
7 *2437:A spine_bot_iw[17] 7.27954e-05
*RES
1 *2434:X spine_bot_iw[17] 6.05103 
*END

*D_NET *59 0.00115795
*CONN
*P spine_bot_iw[18] O
*I *2436:X O *D sky130_fd_sc_hd__buf_8
*CAP
1 spine_bot_iw[18] 0.000259132
2 *2436:X 0.000259132
3 spine_bot_iw[18] spine_bot_iw[19] 0.00013942
4 spine_bot_iw[18] spine_bot_iw[20] 7.70248e-05
5 spine_bot_iw[18] spine_bot_iw[21] 0
6 spine_bot_iw[18] *2434:A 0.000129424
7 spine_bot_iw[17] spine_bot_iw[18] 0.000283724
8 *2437:A spine_bot_iw[18] 1.00909e-05
*RES
1 *2436:X spine_bot_iw[18] 7.0347 
*END

*D_NET *60 0.000757834
*CONN
*P spine_bot_iw[19] O
*I *2438:X O *D sky130_fd_sc_hd__buf_8
*CAP
1 spine_bot_iw[19] 0.000222576
2 *2438:X 0.000222576
3 spine_bot_iw[19] spine_bot_iw[20] 0.000173262
4 spine_bot_iw[19] *2432:A 0
5 spine_bot_iw[18] spine_bot_iw[19] 0.00013942
*RES
1 *2438:X spine_bot_iw[19] 7.36903 
*END

*D_NET *61 0.000442074
*CONN
*P spine_bot_iw[1] O
*I *2420:X O *D sky130_fd_sc_hd__buf_8
*CAP
1 spine_bot_iw[1] 0.000165147
2 *2420:X 0.000165147
3 spine_bot_iw[1] spine_bot_iw[2] 5.81169e-05
4 spine_bot_iw[0] spine_bot_iw[1] 5.36632e-05
*RES
1 *2420:X spine_bot_iw[1] 6.34563 
*END

*D_NET *62 0.00226915
*CONN
*P spine_bot_iw[20] O
*I *2440:X O *D sky130_fd_sc_hd__buf_8
*CAP
1 spine_bot_iw[20] 0.000627366
2 *2440:X 0.000627366
3 spine_bot_iw[20] spine_bot_iw[21] 0.000258904
4 spine_bot_iw[20] spine_bot_iw[22] 6.63219e-06
5 spine_bot_iw[20] *2432:A 0
6 spine_bot_iw[20] *2434:A 0
7 spine_bot_iw[20] *2436:A 0
8 spine_bot_iw[20] *2438:A 0
9 spine_bot_iw[20] *173:182 0.000105592
10 spine_bot_iw[18] spine_bot_iw[20] 7.70248e-05
11 spine_bot_iw[19] spine_bot_iw[20] 0.000173262
12 *2433:A spine_bot_iw[20] 2.05571e-05
13 *2437:A spine_bot_iw[20] 4.90855e-05
14 *14:34 spine_bot_iw[20] 0.000323357
*RES
1 *2440:X spine_bot_iw[20] 14.1249 
*END

*D_NET *63 0.00273485
*CONN
*P spine_bot_iw[21] O
*I *2442:X O *D sky130_fd_sc_hd__buf_8
*CAP
1 spine_bot_iw[21] 0.000812349
2 *2442:X 0.000812349
3 spine_bot_iw[21] spine_bot_iw[22] 0.000720372
4 spine_bot_iw[21] spine_bot_iw[24] 0
5 spine_bot_iw[21] *2444:A 8.28419e-05
6 spine_bot_iw[21] *2446:A 0
7 spine_bot_iw[18] spine_bot_iw[21] 0
8 spine_bot_iw[20] spine_bot_iw[21] 0.000258904
9 *22:44 spine_bot_iw[21] 4.80285e-05
*RES
1 *2442:X spine_bot_iw[21] 9.80737 
*END

*D_NET *64 0.00271078
*CONN
*P spine_bot_iw[22] O
*I *2444:X O *D sky130_fd_sc_hd__buf_8
*CAP
1 spine_bot_iw[22] 0.000756447
2 *2444:X 0.000756447
3 spine_bot_iw[22] spine_bot_iw[23] 0.000398754
4 spine_bot_iw[22] spine_bot_iw[24] 7.21232e-05
5 spine_bot_iw[22] *2444:A 0
6 spine_bot_iw[20] spine_bot_iw[22] 6.63219e-06
7 spine_bot_iw[21] spine_bot_iw[22] 0.000720372
8 *14:34 spine_bot_iw[22] 0
*RES
1 *2444:X spine_bot_iw[22] 9.92937 
*END

*D_NET *65 0.00241143
*CONN
*P spine_bot_iw[23] O
*I *2446:X O *D sky130_fd_sc_hd__buf_8
*CAP
1 spine_bot_iw[23] 0.000734504
2 *2446:X 0.000734504
3 spine_bot_iw[23] spine_bot_iw[24] 0.000511079
4 spine_bot_iw[23] spine_bot_iw[25] 0
5 spine_bot_iw[23] *2444:A 0
6 spine_bot_iw[23] *2446:A 3.25831e-05
7 spine_bot_iw[23] *2539:RESET_B 0
8 spine_bot_iw[22] spine_bot_iw[23] 0.000398754
*RES
1 *2446:X spine_bot_iw[23] 14.5175 
*END

*D_NET *66 0.00268504
*CONN
*P spine_bot_iw[24] O
*I *2448:X O *D sky130_fd_sc_hd__buf_8
*CAP
1 spine_bot_iw[24] 0.000708787
2 *2448:X 0.000708787
3 spine_bot_iw[24] spine_bot_iw[25] 0.000684268
4 spine_bot_iw[24] *2446:A 0
5 spine_bot_iw[24] *2539:RESET_B 0
6 spine_bot_iw[21] spine_bot_iw[24] 0
7 spine_bot_iw[22] spine_bot_iw[24] 7.21232e-05
8 spine_bot_iw[23] spine_bot_iw[24] 0.000511079
*RES
1 *2448:X spine_bot_iw[24] 9.01237 
*END

*D_NET *67 0.00244919
*CONN
*P spine_bot_iw[25] O
*I *2450:X O *D sky130_fd_sc_hd__buf_8
*CAP
1 spine_bot_iw[25] 0.000605734
2 *2450:X 0.000605734
3 spine_bot_iw[25] spine_bot_iw[26] 0.000283724
4 spine_bot_iw[25] *2446:A 0
5 spine_bot_iw[25] *2539:RESET_B 0.000269726
6 spine_bot_iw[23] spine_bot_iw[25] 0
7 spine_bot_iw[24] spine_bot_iw[25] 0.000684268
*RES
1 *2450:X spine_bot_iw[25] 9.77057 
*END

*D_NET *68 0.00114304
*CONN
*P spine_bot_iw[26] O
*I *2452:X O *D sky130_fd_sc_hd__buf_8
*CAP
1 spine_bot_iw[26] 0.000287798
2 *2452:X 0.000287798
3 spine_bot_iw[26] spine_bot_iw[27] 0.000283724
4 spine_bot_iw[25] spine_bot_iw[26] 0.000283724
*RES
1 *2452:X spine_bot_iw[26] 7.60297 
*END

*D_NET *69 0.0013968
*CONN
*P spine_bot_iw[27] O
*I *2454:X O *D sky130_fd_sc_hd__buf_8
*CAP
1 spine_bot_iw[27] 0.000362141
2 *2454:X 0.000362141
3 spine_bot_iw[27] spine_bot_iw[28] 0.000283724
4 spine_bot_iw[27] *2452:A 0.000105068
5 spine_bot_iw[26] spine_bot_iw[27] 0.000283724
*RES
1 *2454:X spine_bot_iw[27] 9.38797 
*END

*D_NET *70 0.00112624
*CONN
*P spine_bot_iw[28] O
*I *2456:X O *D sky130_fd_sc_hd__buf_8
*CAP
1 spine_bot_iw[28] 0.000365669
2 *2456:X 0.000365669
3 spine_bot_iw[28] spine_bot_iw[29] 0.00011118
4 spine_bot_iw[27] spine_bot_iw[28] 0.000283724
*RES
1 *2456:X spine_bot_iw[28] 7.2095 
*END

*D_NET *71 0.000652857
*CONN
*P spine_bot_iw[29] O
*I *2467:LO O *D sky130_fd_sc_hd__conb_1
*CAP
1 spine_bot_iw[29] 0.000270838
2 *2467:LO 0.000270838
3 spine_bot_iw[29] *2550:DIODE 0
4 spine_bot_iw[28] spine_bot_iw[29] 0.00011118
*RES
1 *2467:LO spine_bot_iw[29] 7.2829 
*END

*D_NET *72 0.00108327
*CONN
*P spine_bot_iw[2] O
*I *2457:X O *D sky130_fd_sc_hd__buf_8
*CAP
1 spine_bot_iw[2] 0.000338117
2 *2457:X 0.000338117
3 spine_bot_iw[2] spine_bot_iw[3] 0.000287147
4 spine_bot_iw[2] *2457:A 0
5 spine_bot_iw[0] spine_bot_iw[2] 1.28002e-05
6 spine_bot_iw[1] spine_bot_iw[2] 5.81169e-05
7 *2437:A spine_bot_iw[2] 4.89679e-05
*RES
1 *2457:X spine_bot_iw[2] 5.9345 
*END

*D_NET *73 0.00172363
*CONN
*P spine_bot_iw[3] O
*I *2458:X O *D sky130_fd_sc_hd__buf_8
*CAP
1 spine_bot_iw[3] 0.000554536
2 *2458:X 0.000554536
3 spine_bot_iw[3] spine_bot_iw[4] 0.000167663
4 spine_bot_iw[3] spine_bot_iw[5] 8.57238e-05
5 spine_bot_iw[3] *192:19 5.20196e-05
6 spine_bot_iw[2] spine_bot_iw[3] 0.000287147
7 *14:23 spine_bot_iw[3] 2.20023e-05
*RES
1 *2458:X spine_bot_iw[3] 7.38603 
*END

*D_NET *74 0.00123516
*CONN
*P spine_bot_iw[4] O
*I *2459:X O *D sky130_fd_sc_hd__buf_8
*CAP
1 spine_bot_iw[4] 0.000356529
2 *2459:X 0.000356529
3 spine_bot_iw[4] spine_bot_iw[5] 0.000171083
4 spine_bot_iw[4] spine_bot_iw[6] 0
5 spine_bot_iw[4] *2457:A 0.000118513
6 spine_bot_iw[4] *2459:A 0
7 spine_bot_iw[4] *192:19 6.48391e-05
8 spine_bot_iw[11] spine_bot_iw[4] 0
9 spine_bot_iw[3] spine_bot_iw[4] 0.000167663
10 *2437:A spine_bot_iw[4] 0
*RES
1 *2459:X spine_bot_iw[4] 9.29843 
*END

*D_NET *75 0.0029334
*CONN
*P spine_bot_iw[5] O
*I *2460:X O *D sky130_fd_sc_hd__buf_8
*CAP
1 spine_bot_iw[5] 0.00108627
2 *2460:X 0.00108627
3 spine_bot_iw[5] spine_bot_iw[6] 0.000355578
4 spine_bot_iw[5] spine_bot_iw[9] 0
5 spine_bot_iw[5] *193:12 0
6 spine_bot_iw[5] *194:19 0.000148475
7 spine_bot_iw[3] spine_bot_iw[5] 8.57238e-05
8 spine_bot_iw[4] spine_bot_iw[5] 0.000171083
*RES
1 *2460:X spine_bot_iw[5] 9.01237 
*END

*D_NET *76 0.00354846
*CONN
*P spine_bot_iw[6] O
*I *2461:X O *D sky130_fd_sc_hd__buf_8
*CAP
1 spine_bot_iw[6] 0.00089165
2 *2461:X 0.00089165
3 spine_bot_iw[6] spine_bot_iw[7] 0.000219008
4 spine_bot_iw[6] spine_bot_iw[8] 5.27682e-06
5 spine_bot_iw[6] *2422:A 0.000289202
6 spine_bot_iw[6] *2459:A 0.000365323
7 spine_bot_iw[6] *2460:A 6.20952e-05
8 spine_bot_iw[6] *2534:RESET_B 0
9 spine_bot_iw[6] *164:91 0
10 spine_bot_iw[6] *164:93 0
11 spine_bot_iw[6] *173:124 0
12 spine_bot_iw[6] *194:19 0.000305933
13 spine_bot_iw[6] *195:17 0.000117716
14 spine_bot_iw[11] spine_bot_iw[6] 3.16333e-05
15 spine_bot_iw[4] spine_bot_iw[6] 0
16 spine_bot_iw[5] spine_bot_iw[6] 0.000355578
17 *2437:A spine_bot_iw[6] 1.33934e-05
*RES
1 *2461:X spine_bot_iw[6] 22.0518 
*END

*D_NET *77 0.00447002
*CONN
*P spine_bot_iw[7] O
*I *2462:X O *D sky130_fd_sc_hd__buf_8
*CAP
1 spine_bot_iw[7] 0.000639147
2 *2462:X 0.000639147
3 spine_bot_iw[7] spine_bot_iw[8] 0.00163641
4 spine_bot_iw[7] *2426:A 0
5 spine_bot_iw[7] *164:89 9.17107e-05
6 spine_bot_iw[7] *164:91 7.59627e-05
7 spine_bot_iw[7] *173:118 0.000706593
8 spine_bot_iw[7] *173:120 0.000296504
9 spine_bot_iw[7] *173:124 0.000128212
10 spine_bot_iw[11] spine_bot_iw[7] 3.73195e-05
11 spine_bot_iw[6] spine_bot_iw[7] 0.000219008
12 *2437:A spine_bot_iw[7] 0
*RES
1 *2462:X spine_bot_iw[7] 22.5922 
*END

*D_NET *78 0.00428753
*CONN
*P spine_bot_iw[8] O
*I *2463:X O *D sky130_fd_sc_hd__buf_8
*CAP
1 spine_bot_iw[8] 0.000891876
2 *2463:X 0.000891876
3 spine_bot_iw[8] spine_bot_iw[9] 0.000779604
4 spine_bot_iw[8] *2426:A 0
5 spine_bot_iw[8] *2509:A 0
6 spine_bot_iw[8] *2535:CLK 0
7 spine_bot_iw[8] *164:89 7.33465e-05
8 spine_bot_iw[11] spine_bot_iw[8] 4.56278e-06
9 spine_bot_iw[6] spine_bot_iw[8] 5.27682e-06
10 spine_bot_iw[7] spine_bot_iw[8] 0.00163641
11 *2437:A spine_bot_iw[8] 4.57523e-06
*RES
1 *2463:X spine_bot_iw[8] 26.0736 
*END

*D_NET *79 0.00440607
*CONN
*P spine_bot_iw[9] O
*I *2464:X O *D sky130_fd_sc_hd__buf_8
*CAP
1 spine_bot_iw[9] 0.00134948
2 *2464:X 0.00134948
3 spine_bot_iw[9] *2424:A 0
4 spine_bot_iw[9] *2462:A 0
5 spine_bot_iw[9] *2509:A 0
6 spine_bot_iw[9] *2510:A 0
7 spine_bot_iw[9] *2535:CLK 0
8 spine_bot_iw[9] *2536:CLK 0.000366021
9 spine_bot_iw[10] spine_bot_iw[9] 0.000519372
10 spine_bot_iw[5] spine_bot_iw[9] 0
11 spine_bot_iw[8] spine_bot_iw[9] 0.000779604
12 *14:23 spine_bot_iw[9] 4.21127e-05
*RES
1 *2464:X spine_bot_iw[9] 24.1299 
*END

*D_NET *80 0.000791295
*CONN
*P spine_bot_ow[0] I
*I *2550:DIODE I *D sky130_fd_sc_hd__diode_2
*CAP
1 spine_bot_ow[0] 0.00024119
2 *2550:DIODE 0.00024119
3 *2550:DIODE spine_bot_ow[1] 0.000108428
4 spine_bot_iw[29] *2550:DIODE 0
5 *4:13 *2550:DIODE 0.000200486
*RES
1 spine_bot_ow[0] *2550:DIODE 7.2829 
*END

*D_NET *81 0.00868917
*CONN
*P spine_bot_ow[10] I
*I *2642:A I *D sky130_fd_sc_hd__inv_2
*I *2551:DIODE I *D sky130_fd_sc_hd__diode_2
*I *2392:Z O *D sky130_fd_sc_hd__ebufn_1
*CAP
1 spine_bot_ow[10] 0.000369586
2 *2642:A 0.000512693
3 *2551:DIODE 0.000112329
4 *2392:Z 0
5 *81:22 0.00333853
6 *81:6 0.00308309
7 spine_bot_ow[10] spine_bot_ow[11] 0.000390522
8 spine_bot_ow[10] spine_bot_ow[7] 0
9 spine_bot_ow[10] spine_bot_ow[9] 0.000252276
10 spine_bot_ow[10] *2680:A 2.23342e-05
11 *2642:A *2597:DIODE 2.75229e-05
12 *2642:A *2643:A 0.000132721
13 *2642:A *2652:A0 2.11084e-05
14 *2642:A *2653:A0 4.70343e-05
15 *2642:A *2678:A 8.65905e-05
16 *2642:A *2679:A 4.82863e-05
17 *2642:A *2689:A0 4.80182e-05
18 *2642:A *160:10 0
19 *81:22 *2552:DIODE 0
20 *81:22 *2643:A 3.67779e-05
21 *81:22 *2673:A 0
22 *81:22 *2680:A 0.000159755
23 *81:22 *2690:A1 0
24 *81:22 *103:22 0
25 *81:22 *160:10 0
*RES
1 *2392:Z *81:6 3.6 
2 *81:6 spine_bot_ow[10] 2.87577 
3 *81:6 *81:22 45.75 
4 *81:22 *2551:DIODE 4.74 
5 *81:22 *2642:A 13.59 
*END

*D_NET *82 0.0103149
*CONN
*P spine_bot_ow[11] I
*I *2643:A I *D sky130_fd_sc_hd__inv_2
*I *2552:DIODE I *D sky130_fd_sc_hd__diode_2
*I *2370:Z O *D sky130_fd_sc_hd__ebufn_1
*CAP
1 spine_bot_ow[11] 0.000290912
2 *2643:A 0.000247113
3 *2552:DIODE 0.00148406
4 *2370:Z 3.38751e-05
5 *82:8 0.00156174
6 spine_bot_ow[11] spine_bot_ow[12] 0.00039555
7 spine_bot_ow[11] *2698:A 0
8 *2552:DIODE spine_bot_ow[12] 6.16226e-06
9 *2552:DIODE *2673:A 0.000134588
10 *2552:DIODE *2690:A1 0.000138196
11 *2552:DIODE *2698:A 0
12 *2552:DIODE *83:29 0.00370212
13 *2552:DIODE *160:10 0.00159275
14 *2643:A *2679:A 9.49033e-05
15 *2643:A *103:22 2.46089e-05
16 *82:8 *167:94 4.82863e-05
17 spine_bot_ow[10] spine_bot_ow[11] 0.000390522
18 *2642:A *2643:A 0.000132721
19 *81:22 *2552:DIODE 0
20 *81:22 *2643:A 3.67779e-05
*RES
1 *2370:Z *82:8 4.05 
2 *82:8 spine_bot_ow[11] 2.75923 
3 *82:8 *2552:DIODE 49.305 
4 *2552:DIODE *2643:A 12.105 
*END

*D_NET *83 0.00945907
*CONN
*P spine_bot_ow[12] I
*I *2644:A I *D sky130_fd_sc_hd__inv_2
*I *2553:DIODE I *D sky130_fd_sc_hd__diode_2
*I *2371:Z O *D sky130_fd_sc_hd__ebufn_1
*CAP
1 spine_bot_ow[12] 0.000306208
2 *2644:A 0.000300558
3 *2553:DIODE 0
4 *2371:Z 0.00200444
5 *83:29 0.00199879
6 spine_bot_ow[12] spine_bot_ow[13] 0.000390518
7 spine_bot_ow[12] spine_bot_ow[7] 0
8 spine_bot_ow[12] *2698:A 0
9 *2644:A *2645:A 0
10 *2644:A *84:22 0
11 *2644:A *160:10 0.000183462
12 *83:29 *2690:A0 0.000116165
13 *83:29 *2698:A 0
14 *83:29 *84:22 0
15 *83:29 *160:10 5.50989e-05
16 spine_bot_ow[11] spine_bot_ow[12] 0.00039555
17 *2552:DIODE spine_bot_ow[12] 6.16226e-06
18 *2552:DIODE *83:29 0.00370212
*RES
1 *2371:Z spine_bot_ow[12] 6.2765 
2 *2371:Z *83:29 47.31 
3 *83:29 *2553:DIODE 3.6 
4 *83:29 *2644:A 9.69 
*END

*D_NET *84 0.00823461
*CONN
*P spine_bot_ow[13] I
*I *2645:A I *D sky130_fd_sc_hd__inv_2
*I *2554:DIODE I *D sky130_fd_sc_hd__diode_2
*I *2372:Z O *D sky130_fd_sc_hd__ebufn_1
*CAP
1 spine_bot_ow[13] 0.000298906
2 *2645:A 0.000402496
3 *2554:DIODE 7.56888e-05
4 *2372:Z 0
5 *84:22 0.00326062
6 *84:6 0.00308134
7 spine_bot_ow[13] spine_bot_ow[14] 0.000390518
8 spine_bot_ow[13] *2698:A 2.04763e-05
9 spine_bot_ow[13] *85:22 0
10 *2645:A *2619:A0 0
11 *84:22 *2619:A0 0
12 *84:22 *2646:A 0
13 *84:22 *2690:A0 0
14 *84:22 *2698:A 0.000239606
15 *84:22 *85:22 0
16 spine_bot_ow[12] spine_bot_ow[13] 0.000390518
17 *2644:A *2645:A 0
18 *2644:A *84:22 0
19 *24:68 *84:22 7.44375e-05
20 *83:29 *84:22 0
*RES
1 *2372:Z *84:6 3.6 
2 *84:6 spine_bot_ow[13] 2.8175 
3 *84:6 *84:22 47.79 
4 *84:22 *2554:DIODE 4.395 
5 *84:22 *2645:A 10.125 
*END

*D_NET *85 0.00772117
*CONN
*P spine_bot_ow[14] I
*I *2646:A I *D sky130_fd_sc_hd__inv_2
*I *2555:DIODE I *D sky130_fd_sc_hd__diode_2
*I *2373:Z O *D sky130_fd_sc_hd__ebufn_1
*CAP
1 spine_bot_ow[14] 0.000499598
2 *2646:A 0.000179654
3 *2555:DIODE 2.56208e-05
4 *2373:Z 0
5 *85:22 0.00281402
6 *85:6 0.00310834
7 spine_bot_ow[14] spine_bot_ow[15] 0.000264128
8 spine_bot_ow[14] spine_bot_ow[17] 0
9 spine_bot_ow[14] *2558:DIODE 0
10 *2555:DIODE *2619:A0 1.83847e-05
11 *2646:A *2610:A 0
12 *2646:A *2619:A0 0.000298442
13 *85:22 *2558:DIODE 0
14 *85:22 *2603:A 0.000122465
15 *85:22 *89:22 0
16 spine_bot_ow[13] spine_bot_ow[14] 0.000390518
17 spine_bot_ow[13] *85:22 0
18 *24:68 *85:22 0
19 *84:22 *2646:A 0
20 *84:22 *85:22 0
*RES
1 *2373:Z *85:6 3.6 
2 *85:6 spine_bot_ow[14] 3.05057 
3 *85:6 *85:22 44.22 
4 *85:22 *2555:DIODE 4.05 
5 *85:22 *2646:A 7.785 
*END

*D_NET *86 0.0107246
*CONN
*P spine_bot_ow[15] I
*I *2647:A I *D sky130_fd_sc_hd__inv_2
*I *2556:DIODE I *D sky130_fd_sc_hd__diode_2
*I *2374:Z O *D sky130_fd_sc_hd__ebufn_1
*CAP
1 spine_bot_ow[15] 0.000782802
2 *2647:A 0.000306866
3 *2556:DIODE 0.000203004
4 *2374:Z 0
5 *86:22 0.00297992
6 *86:6 0.00325285
7 spine_bot_ow[15] spine_bot_ow[16] 0.000926589
8 spine_bot_ow[15] spine_bot_ow[17] 2.05233e-05
9 spine_bot_ow[15] spine_bot_ow[19] 6.83077e-06
10 spine_bot_ow[15] *2374:TE_B 0
11 spine_bot_ow[15] *87:22 0
12 spine_bot_ow[15] *167:36 0
13 *2556:DIODE *2557:DIODE 0.0001249
14 *2556:DIODE *2560:DIODE 8.49205e-05
15 *2647:A *2611:A 0
16 *2647:A *2613:A 0
17 *2647:A *2648:A 0
18 *2647:A *2696:A 4.82863e-05
19 *86:22 spine_bot_ow[20] 8.66976e-06
20 *86:22 *2378:TE_B 0
21 *86:22 *2613:A 0
22 *86:22 *87:22 0
23 *86:22 *90:24 0
24 *86:22 *92:26 0.00171427
25 *86:22 *93:22 0
26 *86:22 *167:36 0
27 spine_bot_ow[14] spine_bot_ow[15] 0.000264128
28 *4:13 spine_bot_ow[15] 0
*RES
1 *2374:Z *86:6 3.6 
2 *86:6 spine_bot_ow[15] 3.61043 
3 *86:6 *86:22 52.635 
4 *86:22 *2556:DIODE 7.155 
5 *86:22 *2647:A 8.745 
*END

*D_NET *87 0.0113817
*CONN
*P spine_bot_ow[16] I
*I *2648:A I *D sky130_fd_sc_hd__inv_2
*I *2557:DIODE I *D sky130_fd_sc_hd__diode_2
*I *2375:Z O *D sky130_fd_sc_hd__ebufn_1
*CAP
1 spine_bot_ow[16] 0.000753059
2 *2648:A 0.000270888
3 *2557:DIODE 0.000323946
4 *2375:Z 0
5 *87:22 0.00219457
6 *87:6 0.0023528
7 spine_bot_ow[16] spine_bot_ow[17] 0.000220039
8 spine_bot_ow[16] spine_bot_ow[21] 0
9 spine_bot_ow[16] spine_bot_ow[22] 0.000131473
10 spine_bot_ow[16] spine_bot_ow[23] 0
11 *2557:DIODE *2613:A 4.80182e-05
12 *2648:A *2613:A 3.05238e-05
13 *2648:A *2614:A 2.84137e-05
14 *2648:A *2615:A 0
15 *2648:A *2623:A0 0
16 *2648:A *2658:A0 0
17 *2648:A *2664:A 0.000188226
18 *2648:A *2696:A 8.65905e-05
19 *87:22 spine_bot_ow[21] 8.66976e-06
20 *87:22 spine_bot_ow[22] 8.69126e-05
21 *87:22 *2613:A 0.000148769
22 *87:22 *2614:A 0.000152972
23 *87:22 *93:22 0.00163884
24 *87:22 *94:22 0.00166553
25 spine_bot_ow[15] spine_bot_ow[16] 0.000926589
26 spine_bot_ow[15] *87:22 0
27 *2556:DIODE *2557:DIODE 0.0001249
28 *2647:A *2648:A 0
29 *4:13 spine_bot_ow[16] 0
30 *86:22 *87:22 0
*RES
1 *2375:Z *87:6 3.6 
2 *87:6 spine_bot_ow[16] 4.26737 
3 *87:6 *87:22 52.38 
4 *87:22 *2557:DIODE 7.5 
5 *87:22 *2648:A 9.345 
*END

*D_NET *88 0.00742654
*CONN
*P spine_bot_ow[17] I
*I *2603:A I *D sky130_fd_sc_hd__buf_2
*I *2558:DIODE I *D sky130_fd_sc_hd__diode_2
*I *2376:Z O *D sky130_fd_sc_hd__ebufn_1
*CAP
1 spine_bot_ow[17] 0.000363032
2 *2603:A 0.000231869
3 *2558:DIODE 0.00200628
4 *2376:Z 0
5 *88:6 0.00213745
6 spine_bot_ow[17] spine_bot_ow[18] 0.000383198
7 spine_bot_ow[17] *166:75 0
8 *2558:DIODE spine_bot_ow[18] 9.58678e-06
9 *2558:DIODE *89:22 0.0019321
10 *2558:DIODE *166:75 0
11 *2603:A *2610:A 0
12 *2603:A *89:22 0
13 spine_bot_ow[14] spine_bot_ow[17] 0
14 spine_bot_ow[14] *2558:DIODE 0
15 spine_bot_ow[15] spine_bot_ow[17] 2.05233e-05
16 spine_bot_ow[16] spine_bot_ow[17] 0.000220039
17 *85:22 *2558:DIODE 0
18 *85:22 *2603:A 0.000122465
*RES
1 *2376:Z *88:6 3.6 
2 *88:6 spine_bot_ow[17] 2.8175 
3 *88:6 *2558:DIODE 44.025 
4 *2558:DIODE *2603:A 11.415 
*END

*D_NET *89 0.00783608
*CONN
*P spine_bot_ow[18] I
*I *2610:A I *D sky130_fd_sc_hd__buf_2
*I *2559:DIODE I *D sky130_fd_sc_hd__diode_2
*I *2377:Z O *D sky130_fd_sc_hd__ebufn_1
*CAP
1 spine_bot_ow[18] 0.000331276
2 *2610:A 0.000304135
3 *2559:DIODE 0
4 *2377:Z 0
5 *89:22 0.00221698
6 *89:6 0.00224412
7 spine_bot_ow[18] spine_bot_ow[19] 0.000376099
8 spine_bot_ow[18] spine_bot_ow[20] 1.16775e-05
9 spine_bot_ow[18] *166:75 8.66976e-06
10 *2610:A *90:24 0
11 *89:22 *90:24 0
12 *89:22 *166:75 1.82476e-05
13 spine_bot_ow[17] spine_bot_ow[18] 0.000383198
14 *2558:DIODE spine_bot_ow[18] 9.58678e-06
15 *2558:DIODE *89:22 0.0019321
16 *2603:A *2610:A 0
17 *2603:A *89:22 0
18 *2646:A *2610:A 0
19 *85:22 *89:22 0
*RES
1 *2377:Z *89:6 3.6 
2 *89:6 spine_bot_ow[18] 2.6765 
3 *89:6 *89:22 43.455 
4 *89:22 *2559:DIODE 3.6 
5 *89:22 *2610:A 8.58 
*END

*D_NET *90 0.00916226
*CONN
*P spine_bot_ow[19] I
*I *2611:A I *D sky130_fd_sc_hd__buf_2
*I *2560:DIODE I *D sky130_fd_sc_hd__diode_2
*I *2378:Z O *D sky130_fd_sc_hd__ebufn_1
*CAP
1 spine_bot_ow[19] 0.000302957
2 *2611:A 0.000343986
3 *2560:DIODE 6.05552e-05
4 *2378:Z 3.74904e-05
5 *90:24 0.0026142
6 *90:8 0.00255011
7 spine_bot_ow[19] spine_bot_ow[20] 0.000381586
8 spine_bot_ow[19] *2378:TE_B 4.24562e-05
9 spine_bot_ow[19] *167:61 1.92979e-05
10 spine_bot_ow[19] *167:191 2.08556e-05
11 *2611:A *2612:A 0.000130065
12 *2611:A *2656:S 0
13 *2611:A *2696:A 0.000197264
14 *90:8 *2378:TE_B 3.64998e-06
15 *90:8 *167:23 8.70076e-06
16 *90:8 *167:32 4.6368e-06
17 *90:24 *2378:TE_B 0.000108322
18 *90:24 *2612:A 3.67779e-05
19 *90:24 *92:26 0.00169393
20 *90:24 *167:191 0.000137571
21 spine_bot_ow[15] spine_bot_ow[19] 6.83077e-06
22 spine_bot_ow[18] spine_bot_ow[19] 0.000376099
23 *2556:DIODE *2560:DIODE 8.49205e-05
24 *2610:A *90:24 0
25 *2647:A *2611:A 0
26 *86:22 *90:24 0
27 *89:22 *90:24 0
*RES
1 *2378:Z *90:8 4.05 
2 *90:8 spine_bot_ow[19] 2.75923 
3 *90:8 *90:24 49.83 
4 *90:24 *2560:DIODE 4.395 
5 *90:24 *2611:A 10.38 
*END

*D_NET *91 0.00969269
*CONN
*P spine_bot_ow[1] I
*I *2667:A I *D sky130_fd_sc_hd__inv_2
*I *2561:DIODE I *D sky130_fd_sc_hd__diode_2
*I *2369:Z O *D sky130_fd_sc_hd__ebufn_1
*CAP
1 spine_bot_ow[1] 0.000633853
2 *2667:A 0.00018594
3 *2561:DIODE 0.000298268
4 *2369:Z 0
5 *91:24 0.0013055
6 *91:6 0.00182703
7 spine_bot_ow[1] spine_bot_ow[2] 0.000423514
8 spine_bot_ow[1] spine_bot_ow[3] 6.30791e-05
9 spine_bot_ow[1] *99:24 4.43871e-06
10 spine_bot_ow[1] *100:10 0
11 *2667:A *238:12 5.72004e-05
12 *91:24 spine_bot_ow[2] 2.05641e-05
13 *91:24 *98:24 0.000157004
14 *91:24 *98:26 0.00224197
15 *91:24 *99:24 0.0023659
16 *2550:DIODE spine_bot_ow[1] 0.000108428
*RES
1 *2369:Z *91:6 3.6 
2 *91:6 spine_bot_ow[1] 3.64923 
3 *91:6 *91:24 49.79 
4 *91:24 *2561:DIODE 2.74 
5 *2561:DIODE *2667:A 9.975 
*END

*D_NET *92 0.00846552
*CONN
*P spine_bot_ow[20] I
*I *2612:A I *D sky130_fd_sc_hd__buf_2
*I *2562:DIODE I *D sky130_fd_sc_hd__diode_2
*I *2379:Z O *D sky130_fd_sc_hd__ebufn_1
*CAP
1 spine_bot_ow[20] 0.000300704
2 *2612:A 0.000267571
3 *2562:DIODE 0.000267571
4 *2379:Z 0
5 *92:26 0.00143411
6 *92:6 0.00173481
7 spine_bot_ow[20] spine_bot_ow[21] 0.000439799
8 spine_bot_ow[20] *2378:TE_B 9.58678e-06
9 *2612:A *2620:A0 0
10 *2612:A *2656:S 5.53249e-06
11 *92:26 *2378:TE_B 2.8867e-05
12 spine_bot_ow[18] spine_bot_ow[20] 1.16775e-05
13 spine_bot_ow[19] spine_bot_ow[20] 0.000381586
14 *2611:A *2612:A 0.000130065
15 *86:22 spine_bot_ow[20] 8.66976e-06
16 *86:22 *92:26 0.00171427
17 *90:24 *2612:A 3.67779e-05
18 *90:24 *92:26 0.00169393
*RES
1 *2379:Z *92:6 3.6 
2 *92:6 spine_bot_ow[20] 2.6765 
3 *92:6 *92:26 49.82 
4 *92:26 *2562:DIODE 1.6 
5 *2562:DIODE *2612:A 11.76 
*END

*D_NET *93 0.0082165
*CONN
*P spine_bot_ow[21] I
*I *2613:A I *D sky130_fd_sc_hd__buf_2
*I *2563:DIODE I *D sky130_fd_sc_hd__diode_2
*I *2381:Z O *D sky130_fd_sc_hd__ebufn_1
*CAP
1 spine_bot_ow[21] 0.00046629
2 *2613:A 0.000311435
3 *2563:DIODE 4.43494e-05
4 *2381:Z 0
5 *93:22 0.00236309
6 *93:6 0.00247359
7 spine_bot_ow[21] spine_bot_ow[22] 0.000243132
8 spine_bot_ow[21] spine_bot_ow[24] 0
9 spine_bot_ow[16] spine_bot_ow[21] 0
10 spine_bot_ow[20] spine_bot_ow[21] 0.000439799
11 *2557:DIODE *2613:A 4.80182e-05
12 *2647:A *2613:A 0
13 *2648:A *2613:A 3.05238e-05
14 *86:22 *2613:A 0
15 *86:22 *93:22 0
16 *87:22 spine_bot_ow[21] 8.66976e-06
17 *87:22 *2613:A 0.000148769
18 *87:22 *93:22 0.00163884
*RES
1 *2381:Z *93:6 3.6 
2 *93:6 spine_bot_ow[21] 2.8513 
3 *93:6 *93:22 44.985 
4 *93:22 *2563:DIODE 4.05 
5 *93:22 *2613:A 10.035 
*END

*D_NET *94 0.00852146
*CONN
*P spine_bot_ow[22] I
*I *2614:A I *D sky130_fd_sc_hd__buf_2
*I *2564:DIODE I *D sky130_fd_sc_hd__diode_2
*I *2382:Z O *D sky130_fd_sc_hd__ebufn_1
*CAP
1 spine_bot_ow[22] 0.000470399
2 *2614:A 0.000331343
3 *2564:DIODE 4.43494e-05
4 *2382:Z 0
5 *94:22 0.0024216
6 *94:6 0.0025163
7 spine_bot_ow[22] spine_bot_ow[23] 0.00029869
8 spine_bot_ow[22] spine_bot_ow[24] 6.23121e-06
9 spine_bot_ow[22] *2382:TE_B 0
10 spine_bot_ow[22] *95:22 0
11 *2614:A *2566:DIODE 2.75145e-05
12 *2614:A *2615:A 0
13 *2614:A *2623:A0 9.66021e-05
14 *2614:A *95:22 0
15 *94:22 *2382:TE_B 0
16 *94:22 *95:22 0
17 spine_bot_ow[16] spine_bot_ow[22] 0.000131473
18 spine_bot_ow[21] spine_bot_ow[22] 0.000243132
19 *2648:A *2614:A 2.84137e-05
20 *4:13 spine_bot_ow[22] 0
21 *87:22 spine_bot_ow[22] 8.69126e-05
22 *87:22 *2614:A 0.000152972
23 *87:22 *94:22 0.00166553
*RES
1 *2382:Z *94:6 3.6 
2 *94:6 spine_bot_ow[22] 5.1699 
3 *94:6 *94:22 45.75 
4 *94:22 *2564:DIODE 4.05 
5 *94:22 *2614:A 10.725 
*END

*D_NET *95 0.00831503
*CONN
*P spine_bot_ow[23] I
*I *2615:A I *D sky130_fd_sc_hd__buf_2
*I *2565:DIODE I *D sky130_fd_sc_hd__diode_2
*I *2383:Z O *D sky130_fd_sc_hd__ebufn_1
*CAP
1 spine_bot_ow[23] 0.000368056
2 *2615:A 0.000342311
3 *2565:DIODE 4.43379e-05
4 *2383:Z 0
5 *95:22 0.00335891
6 *95:6 0.00334032
7 spine_bot_ow[23] spine_bot_ow[24] 0.000220039
8 spine_bot_ow[23] *2567:DIODE 2.05641e-05
9 *2615:A *2616:A 0
10 *2615:A *2623:A0 0.00011852
11 *2615:A *96:8 0
12 *95:22 spine_bot_ow[24] 1.88656e-05
13 *95:22 *2382:TE_B 0.000184423
14 *95:22 *96:8 0
15 spine_bot_ow[16] spine_bot_ow[23] 0
16 spine_bot_ow[22] spine_bot_ow[23] 0.00029869
17 spine_bot_ow[22] *95:22 0
18 *2614:A *2615:A 0
19 *2614:A *95:22 0
20 *2648:A *2615:A 0
21 *4:13 spine_bot_ow[23] 0
22 *94:22 *95:22 0
*RES
1 *2383:Z *95:6 3.6 
2 *95:6 spine_bot_ow[23] 3.61203 
3 *95:6 *95:22 49.83 
4 *95:22 *2565:DIODE 4.05 
5 *95:22 *2615:A 9.435 
*END

*D_NET *96 0.00892918
*CONN
*P spine_bot_ow[24] I
*I *2616:A I *D sky130_fd_sc_hd__buf_2
*I *2566:DIODE I *D sky130_fd_sc_hd__diode_2
*I *2384:Z O *D sky130_fd_sc_hd__ebufn_1
*CAP
1 spine_bot_ow[24] 0.000709002
2 *2616:A 0.000176523
3 *2566:DIODE 9.94483e-05
4 *2384:Z 0.000709002
5 *96:8 0.00236832
6 *96:6 0.00209235
7 spine_bot_ow[24] *2567:DIODE 0.000105008
8 *2566:DIODE *2624:A0 1.4399e-05
9 *2616:A *2625:A0 4.92062e-05
10 spine_bot_ow[21] spine_bot_ow[24] 0
11 spine_bot_ow[22] spine_bot_ow[24] 6.23121e-06
12 spine_bot_ow[23] spine_bot_ow[24] 0.000220039
13 *2614:A *2566:DIODE 2.75145e-05
14 *2615:A *2616:A 0
15 *2615:A *96:8 0
16 *23:15 *2616:A 0.000111088
17 *23:15 *96:8 0.00222218
18 *95:22 spine_bot_ow[24] 1.88656e-05
19 *95:22 *96:8 0
*RES
1 *2384:Z *96:6 3.6 
2 *96:6 *96:8 48.045 
3 *96:8 *2566:DIODE 5.085 
4 *96:8 *2616:A 7.14 
5 *2384:Z spine_bot_ow[24] 6.4513 
*END

*D_NET *97 0.00067181
*CONN
*P spine_bot_ow[25] I
*I *2567:DIODE I *D sky130_fd_sc_hd__diode_2
*CAP
1 spine_bot_ow[25] 0.000265832
2 *2567:DIODE 0.000265832
3 spine_bot_ow[23] *2567:DIODE 2.05641e-05
4 spine_bot_ow[24] *2567:DIODE 0.000105008
5 *4:13 *2567:DIODE 1.45731e-05
*RES
1 spine_bot_ow[25] *2567:DIODE 7.2829 
*END

*D_NET *98 0.0108597
*CONN
*P spine_bot_ow[2] I
*I *2674:A I *D sky130_fd_sc_hd__inv_2
*I *2572:DIODE I *D sky130_fd_sc_hd__diode_2
*I *2380:Z O *D sky130_fd_sc_hd__ebufn_1
*CAP
1 spine_bot_ow[2] 0.000369161
2 *2674:A 0.000190773
3 *2572:DIODE 7.43199e-05
4 *2380:Z 0
5 *98:26 0.00172793
6 *98:24 0.00157617
7 *98:6 0.000482489
8 spine_bot_ow[2] spine_bot_ow[3] 0.000389308
9 spine_bot_ow[2] spine_bot_ow[7] 0
10 *2572:DIODE *238:16 8.49205e-05
11 *2572:DIODE *238:22 1.08758e-05
12 *2674:A *2651:A0 0
13 *2674:A *2675:A 0
14 *2674:A *2683:A1 7.23533e-05
15 *2674:A *2684:A0 5.83121e-06
16 *2674:A *2685:A0 0
17 *2674:A *238:213 6.10014e-05
18 *2674:A *238:224 0.000110315
19 *2674:A *238:228 4.82919e-05
20 *2674:A *238:248 1.07797e-05
21 *98:26 *2675:A 0
22 *98:26 *2683:A0 0.000298442
23 *98:26 *2690:S 0
24 *98:26 *99:24 0
25 *98:26 *162:12 0.00052619
26 *98:26 *238:12 0.0019667
27 *98:26 *238:213 1.07797e-05
28 spine_bot_ow[1] spine_bot_ow[2] 0.000423514
29 *2366:A *98:24 0
30 *91:24 spine_bot_ow[2] 2.05641e-05
31 *91:24 *98:24 0.000157004
32 *91:24 *98:26 0.00224197
*RES
1 *2380:Z *98:6 3.6 
2 *98:6 spine_bot_ow[2] 2.8513 
3 *98:6 *98:24 2.3625 
4 *98:24 *98:26 52.3575 
5 *98:26 *2572:DIODE 4.74 
6 *98:26 *2674:A 7.98 
*END

*D_NET *99 0.00967852
*CONN
*P spine_bot_ow[3] I
*I *2675:A I *D sky130_fd_sc_hd__inv_2
*I *2583:DIODE I *D sky130_fd_sc_hd__diode_2
*I *2385:Z O *D sky130_fd_sc_hd__ebufn_1
*CAP
1 spine_bot_ow[3] 0.000296497
2 *2675:A 0.000255196
3 *2583:DIODE 0
4 *2385:Z 0.000122977
5 *99:24 0.00237032
6 *99:8 0.0025346
7 spine_bot_ow[3] spine_bot_ow[4] 0.000277552
8 spine_bot_ow[3] spine_bot_ow[5] 2.44777e-05
9 spine_bot_ow[3] *166:16 2.32724e-05
10 *2675:A *2635:A 0
11 *2675:A *2651:A0 0.000473655
12 *2675:A *2676:A 0
13 *2675:A *2683:A0 0.00012455
14 *2675:A *2683:A1 2.87867e-05
15 *2675:A *2685:A0 1.83847e-05
16 *2675:A *2686:S 8.65961e-05
17 *99:8 *2369:TE_B 2.75229e-05
18 *99:8 *166:20 1.12578e-05
19 *99:8 *167:144 2.75145e-05
20 *99:24 *2635:A 0
21 *99:24 *2676:A 0
22 *99:24 *100:10 0
23 *99:24 *166:10 7.63204e-05
24 *99:24 *166:12 3.05373e-05
25 *99:24 *166:16 4.5783e-05
26 spine_bot_ow[1] spine_bot_ow[3] 6.30791e-05
27 spine_bot_ow[1] *99:24 4.43871e-06
28 spine_bot_ow[2] spine_bot_ow[3] 0.000389308
29 *2674:A *2675:A 0
30 *91:24 *99:24 0.0023659
31 *98:26 *2675:A 0
32 *98:26 *99:24 0
*RES
1 *2385:Z *99:8 5.085 
2 *99:8 spine_bot_ow[3] 2.87577 
3 *99:8 *99:24 49.83 
4 *99:24 *2583:DIODE 3.6 
5 *99:24 *2675:A 11.13 
*END

*D_NET *100 0.00787919
*CONN
*P spine_bot_ow[4] I
*I *2676:A I *D sky130_fd_sc_hd__inv_2
*I *2594:DIODE I *D sky130_fd_sc_hd__diode_2
*I *2386:Z O *D sky130_fd_sc_hd__ebufn_1
*CAP
1 spine_bot_ow[4] 0.000208668
2 *2676:A 0.000254242
3 *2594:DIODE 0
4 *2386:Z 0
5 *100:10 0.00320954
6 *100:8 0.00302984
7 *100:4 0.000283207
8 spine_bot_ow[4] spine_bot_ow[5] 0.000282006
9 spine_bot_ow[4] *166:170 0
10 *2676:A *2635:A 0.000141599
11 *2676:A *2651:A0 0
12 *2676:A *2652:A0 0
13 *2676:A *2677:A 0
14 *2676:A *101:22 0
15 *100:10 spine_bot_ow[5] 0
16 *100:10 *101:22 0
17 *100:10 *166:10 5.21545e-05
18 *100:10 *166:12 9.3062e-06
19 *100:10 *166:170 4.70343e-05
20 *100:10 *167:152 8.40439e-05
21 spine_bot_ow[1] *100:10 0
22 spine_bot_ow[3] spine_bot_ow[4] 0.000277552
23 *2675:A *2676:A 0
24 *4:13 spine_bot_ow[4] 0
25 *99:24 *2676:A 0
26 *99:24 *100:10 0
*RES
1 *2386:Z *100:4 1.6 
2 *100:4 *100:8 2.795 
3 *100:8 *100:10 49.83 
4 *100:10 *2594:DIODE 3.6 
5 *100:10 *2676:A 8.295 
6 *100:4 spine_bot_ow[4] 4.47297 
*END

*D_NET *101 0.00896242
*CONN
*P spine_bot_ow[5] I
*I *2677:A I *D sky130_fd_sc_hd__inv_2
*I *2597:DIODE I *D sky130_fd_sc_hd__diode_2
*I *2387:Z O *D sky130_fd_sc_hd__ebufn_1
*CAP
1 spine_bot_ow[5] 0.000519585
2 *2677:A 0.000131056
3 *2597:DIODE 3.58834e-05
4 *2387:Z 0
5 *101:22 0.00232971
6 *101:6 0.00268236
7 spine_bot_ow[5] spine_bot_ow[6] 0.000312266
8 spine_bot_ow[5] spine_bot_ow[7] 2.457e-05
9 spine_bot_ow[5] *102:24 2.51475e-05
10 *2677:A *2652:A0 6.74079e-05
11 *2677:A *2653:A0 0
12 *2677:A *2678:A 3.57768e-05
13 *2677:A *2688:A0 0
14 *101:22 *2678:A 0.000105068
15 *101:22 *102:24 0.00235958
16 spine_bot_ow[3] spine_bot_ow[5] 2.44777e-05
17 spine_bot_ow[4] spine_bot_ow[5] 0.000282006
18 *2642:A *2597:DIODE 2.75229e-05
19 *2676:A *2677:A 0
20 *2676:A *101:22 0
21 *100:10 spine_bot_ow[5] 0
22 *100:10 *101:22 0
*RES
1 *2387:Z *101:6 3.6 
2 *101:6 spine_bot_ow[5] 3.10883 
3 *101:6 *101:22 49.83 
4 *101:22 *2597:DIODE 4.05 
5 *101:22 *2677:A 6.255 
*END

*D_NET *102 0.00893567
*CONN
*P spine_bot_ow[6] I
*I *2678:A I *D sky130_fd_sc_hd__inv_2
*I *2598:DIODE I *D sky130_fd_sc_hd__diode_2
*I *2388:Z O *D sky130_fd_sc_hd__ebufn_1
*CAP
1 spine_bot_ow[6] 0.000343571
2 *2678:A 0.000160482
3 *2598:DIODE 0
4 *2388:Z 3.38622e-05
5 *102:24 0.00156041
6 *102:8 0.00177736
7 spine_bot_ow[6] spine_bot_ow[7] 0.000276522
8 spine_bot_ow[6] spine_bot_ow[9] 1.88358e-05
9 spine_bot_ow[6] *166:170 0
10 *2678:A *2679:A 0
11 *2678:A *105:24 8.08153e-06
12 *102:8 *2386:A 2.86975e-05
13 *102:24 spine_bot_ow[9] 8.99287e-05
14 *102:24 *105:24 0.00171349
15 *102:24 *166:170 0
16 spine_bot_ow[5] spine_bot_ow[6] 0.000312266
17 spine_bot_ow[5] *102:24 2.51475e-05
18 *2642:A *2678:A 8.65905e-05
19 *2677:A *2678:A 3.57768e-05
20 *4:13 spine_bot_ow[6] 0
21 *101:22 *2678:A 0.000105068
22 *101:22 *102:24 0.00235958
*RES
1 *2388:Z *102:8 4.05 
2 *102:8 spine_bot_ow[6] 2.64777 
3 *102:8 *102:24 49.83 
4 *102:24 *2598:DIODE 3.6 
5 *102:24 *2678:A 7.305 
*END

*D_NET *103 0.0100509
*CONN
*P spine_bot_ow[7] I
*I *2679:A I *D sky130_fd_sc_hd__inv_2
*I *2599:DIODE I *D sky130_fd_sc_hd__diode_2
*I *2389:Z O *D sky130_fd_sc_hd__ebufn_1
*CAP
1 spine_bot_ow[7] 0.000576032
2 *2679:A 0.000198033
3 *2599:DIODE 0
4 *2389:Z 0
5 *103:22 0.00192712
6 *103:6 0.00230512
7 spine_bot_ow[7] spine_bot_ow[8] 0.000220039
8 spine_bot_ow[7] spine_bot_ow[9] 2.39028e-05
9 spine_bot_ow[7] *2680:A 8.66976e-06
10 *2679:A *2653:A0 7.81954e-05
11 *2679:A *105:24 0.000212505
12 *103:22 spine_bot_ow[9] 8.7152e-06
13 *103:22 *2680:A 8.4828e-05
14 *103:22 *105:24 0.00393888
15 spine_bot_ow[10] spine_bot_ow[7] 0
16 spine_bot_ow[12] spine_bot_ow[7] 0
17 spine_bot_ow[2] spine_bot_ow[7] 0
18 spine_bot_ow[5] spine_bot_ow[7] 2.457e-05
19 spine_bot_ow[6] spine_bot_ow[7] 0.000276522
20 *2642:A *2679:A 4.82863e-05
21 *2643:A *2679:A 9.49033e-05
22 *2643:A *103:22 2.46089e-05
23 *2678:A *2679:A 0
24 *81:22 *103:22 0
*RES
1 *2389:Z *103:6 3.6 
2 *103:6 spine_bot_ow[7] 2.90957 
3 *103:6 *103:22 44.985 
4 *103:22 *2599:DIODE 3.6 
5 *103:22 *2679:A 9 
*END

*D_NET *104 0.00261305
*CONN
*P spine_bot_ow[8] I
*I *2600:DIODE I *D sky130_fd_sc_hd__diode_2
*I *2680:A I *D sky130_fd_sc_hd__inv_2
*I *2390:Z O *D sky130_fd_sc_hd__ebufn_1
*CAP
1 spine_bot_ow[8] 0.000224818
2 *2600:DIODE 0
3 *2680:A 0.000443267
4 *2390:Z 5.99166e-05
5 *104:8 0.000668085
6 *104:6 5.99166e-05
7 spine_bot_ow[8] spine_bot_ow[9] 0.000374654
8 *2680:A spine_bot_ow[9] 0
9 *2680:A *167:107 0
10 *104:6 *2390:TE_B 4.95182e-05
11 spine_bot_ow[10] *2680:A 2.23342e-05
12 spine_bot_ow[7] spine_bot_ow[8] 0.000220039
13 spine_bot_ow[7] *2680:A 8.66976e-06
14 *4:13 spine_bot_ow[8] 0
15 *24:68 *2680:A 0.000237243
16 *81:22 *2680:A 0.000159755
17 *103:22 *2680:A 8.4828e-05
*RES
1 *2390:Z *104:6 2.395 
2 *104:6 *104:8 2 
3 *104:8 spine_bot_ow[8] 2.16223 
4 *104:8 *2680:A 12.51 
5 *104:6 *2600:DIODE 1.6 
*END

*D_NET *105 0.0109146
*CONN
*P spine_bot_ow[9] I
*I *2635:A I *D sky130_fd_sc_hd__inv_2
*I *2601:DIODE I *D sky130_fd_sc_hd__diode_2
*I *2391:Z O *D sky130_fd_sc_hd__ebufn_1
*CAP
1 spine_bot_ow[9] 0.000451738
2 *2635:A 0.000373663
3 *2601:DIODE 0.00049019
4 *2391:Z 0
5 *105:24 0.00124048
6 *105:6 0.00157569
7 spine_bot_ow[10] spine_bot_ow[9] 0.000252276
8 spine_bot_ow[6] spine_bot_ow[9] 1.88358e-05
9 spine_bot_ow[7] spine_bot_ow[9] 2.39028e-05
10 spine_bot_ow[8] spine_bot_ow[9] 0.000374654
11 *2675:A *2635:A 0
12 *2676:A *2635:A 0.000141599
13 *2678:A *105:24 8.08153e-06
14 *2679:A *105:24 0.000212505
15 *2680:A spine_bot_ow[9] 0
16 *99:24 *2635:A 0
17 *102:24 spine_bot_ow[9] 8.99287e-05
18 *102:24 *105:24 0.00171349
19 *103:22 spine_bot_ow[9] 8.7152e-06
20 *103:22 *105:24 0.00393888
*RES
1 *2391:Z *105:6 3.6 
2 *105:6 spine_bot_ow[9] 5.87663 
3 *105:6 *105:24 49.28 
4 *105:24 *2601:DIODE 3.085 
5 *2601:DIODE *2635:A 12.15 
*END

*D_NET *106 0.000436673
*CONN
*P spine_top_iw[0] O
*I *2514:LO O *D sky130_fd_sc_hd__conb_1
*CAP
1 spine_top_iw[0] 0.000173964
2 *2514:LO 0.000173964
3 spine_top_iw[0] spine_top_iw[1] 8.2946e-05
4 spine_top_iw[0] spine_top_iw[2] 5.79828e-06
5 pad_uio_out[4] spine_top_iw[0] 0
6 *2489:A spine_top_iw[0] 0
7 *22:17 spine_top_iw[0] 0
*RES
1 *2514:LO spine_top_iw[0] 5.30117 
*END

*D_NET *107 0.00207023
*CONN
*P spine_top_iw[10] O
*I *2513:X O *D sky130_fd_sc_hd__buf_8
*CAP
1 spine_top_iw[10] 0.000784021
2 *2513:X 0.000784021
3 spine_top_iw[10] spine_top_iw[11] 0.000288501
4 spine_top_iw[10] spine_top_iw[13] 0
5 spine_top_iw[10] spine_top_iw[14] 0
6 spine_top_iw[10] spine_top_iw[8] 6.11579e-05
7 spine_top_iw[10] spine_top_iw[9] 2.88432e-05
8 spine_top_iw[10] *2512:A 7.63125e-05
9 *2471:A spine_top_iw[10] 0
10 *2487:A spine_top_iw[10] 4.7371e-05
*RES
1 *2513:X spine_top_iw[10] 12.7891 
*END

*D_NET *108 0.00191432
*CONN
*P spine_top_iw[11] O
*I *2470:X O *D sky130_fd_sc_hd__buf_8
*CAP
1 spine_top_iw[11] 0.00058945
2 *2470:X 0.00058945
3 spine_top_iw[11] spine_top_iw[12] 0.000158249
4 spine_top_iw[11] spine_top_iw[13] 3.11387e-05
5 spine_top_iw[11] spine_top_iw[9] 0
6 spine_top_iw[11] *2468:A 4.18147e-05
7 spine_top_iw[10] spine_top_iw[11] 0.000288501
8 *2487:A spine_top_iw[11] 0.000215715
*RES
1 *2470:X spine_top_iw[11] 7.0939 
*END

*D_NET *109 0.00113262
*CONN
*P spine_top_iw[12] O
*I *2472:X O *D sky130_fd_sc_hd__buf_8
*CAP
1 spine_top_iw[12] 0.000429884
2 *2472:X 0.000429884
3 spine_top_iw[12] spine_top_iw[13] 0.0001146
4 spine_top_iw[12] spine_top_iw[9] 0
5 spine_top_iw[11] spine_top_iw[12] 0.000158249
6 *2487:A spine_top_iw[12] 0
*RES
1 *2472:X spine_top_iw[12] 8.0623 
*END

*D_NET *110 0.00278658
*CONN
*P spine_top_iw[13] O
*I *2474:X O *D sky130_fd_sc_hd__buf_8
*CAP
1 spine_top_iw[13] 0.000813629
2 *2474:X 0.000813629
3 spine_top_iw[13] spine_top_iw[14] 0.000761983
4 spine_top_iw[13] spine_top_iw[15] 0
5 spine_top_iw[13] spine_top_iw[8] 0
6 spine_top_iw[13] *2628:A 0.000163067
7 spine_top_iw[10] spine_top_iw[13] 0
8 spine_top_iw[11] spine_top_iw[13] 3.11387e-05
9 spine_top_iw[12] spine_top_iw[13] 0.0001146
10 *2489:A spine_top_iw[13] 8.8537e-05
*RES
1 *2474:X spine_top_iw[13] 14.8663 
*END

*D_NET *111 0.00395772
*CONN
*P spine_top_iw[14] O
*I *2476:X O *D sky130_fd_sc_hd__buf_8
*CAP
1 spine_top_iw[14] 0.00092667
2 *2476:X 0.00092667
3 spine_top_iw[14] spine_top_iw[15] 0.000659309
4 spine_top_iw[14] *2476:A 0
5 spine_top_iw[14] *2512:A 0.000288218
6 spine_top_iw[10] spine_top_iw[14] 0
7 spine_top_iw[13] spine_top_iw[14] 0.000761983
8 *2491:A spine_top_iw[14] 0.000394872
*RES
1 *2476:X spine_top_iw[14] 16.0704 
*END

*D_NET *112 0.00307634
*CONN
*P spine_top_iw[15] O
*I *2478:X O *D sky130_fd_sc_hd__buf_8
*CAP
1 spine_top_iw[15] 0.000885905
2 *2478:X 0.000885905
3 spine_top_iw[15] spine_top_iw[16] 0.000560438
4 spine_top_iw[15] *203:113 0
5 spine_top_iw[13] spine_top_iw[15] 0
6 spine_top_iw[14] spine_top_iw[15] 0.000659309
7 *2491:A spine_top_iw[15] 8.47837e-05
*RES
1 *2478:X spine_top_iw[15] 12.9218 
*END

*D_NET *113 0.00343012
*CONN
*P spine_top_iw[16] O
*I *2480:X O *D sky130_fd_sc_hd__buf_8
*CAP
1 spine_top_iw[16] 0.00096028
2 *2480:X 0.00096028
3 spine_top_iw[16] spine_top_iw[17] 0.000295517
4 spine_top_iw[16] spine_top_iw[18] 0
5 spine_top_iw[16] spine_top_iw[19] 0
6 spine_top_iw[16] *2478:A 0.000203769
7 spine_top_iw[16] *2480:A 0
8 spine_top_iw[16] *203:113 0.000290902
9 spine_top_iw[16] *203:115 1.1561e-05
10 spine_top_iw[15] spine_top_iw[16] 0.000560438
11 *2483:A spine_top_iw[16] 8.23457e-05
12 *2491:A spine_top_iw[16] 6.50303e-05
*RES
1 *2480:X spine_top_iw[16] 16.0337 
*END

*D_NET *114 0.00206846
*CONN
*P spine_top_iw[17] O
*I *2482:X O *D sky130_fd_sc_hd__buf_8
*CAP
1 spine_top_iw[17] 0.000706644
2 *2482:X 0.000706644
3 spine_top_iw[17] spine_top_iw[18] 0.000295517
4 spine_top_iw[17] spine_top_iw[22] 1.86045e-05
5 spine_top_iw[17] *2490:A 0
6 spine_top_iw[17] *2492:A 3.38178e-05
7 spine_top_iw[17] *2628:A 0
8 spine_top_iw[17] *203:113 0
9 spine_top_iw[16] spine_top_iw[17] 0.000295517
10 *2489:A spine_top_iw[17] 1.17114e-05
*RES
1 *2482:X spine_top_iw[17] 13.2408 
*END

*D_NET *115 0.00247974
*CONN
*P spine_top_iw[18] O
*I *2484:X O *D sky130_fd_sc_hd__buf_8
*CAP
1 spine_top_iw[18] 0.000710679
2 *2484:X 0.000710679
3 spine_top_iw[18] spine_top_iw[19] 0.000299508
4 spine_top_iw[18] spine_top_iw[22] 1.86045e-05
5 spine_top_iw[18] *2482:A 0.000187071
6 spine_top_iw[18] *2492:A 3.12569e-05
7 spine_top_iw[18] *2494:A 0
8 spine_top_iw[16] spine_top_iw[18] 0
9 spine_top_iw[17] spine_top_iw[18] 0.000295517
10 *2491:A spine_top_iw[18] 0.000226427
*RES
1 *2484:X spine_top_iw[18] 15.0258 
*END

*D_NET *116 0.00277121
*CONN
*P spine_top_iw[19] O
*I *2486:X O *D sky130_fd_sc_hd__buf_8
*CAP
1 spine_top_iw[19] 0.00104084
2 *2486:X 0.00104084
3 spine_top_iw[19] spine_top_iw[20] 0.000139429
4 spine_top_iw[19] spine_top_iw[21] 1.79088e-05
5 spine_top_iw[19] spine_top_iw[22] 0
6 spine_top_iw[19] spine_top_iw[24] 0
7 spine_top_iw[19] *2482:A 0
8 spine_top_iw[19] *2484:A 0.000189426
9 spine_top_iw[19] *2628:A 4.3249e-05
10 spine_top_iw[19] *281:12 0
11 spine_top_iw[16] spine_top_iw[19] 0
12 spine_top_iw[18] spine_top_iw[19] 0.000299508
13 *2491:A spine_top_iw[19] 0
*RES
1 *2486:X spine_top_iw[19] 15.2015 
*END

*D_NET *117 0.000692415
*CONN
*P spine_top_iw[1] O
*I *2468:X O *D sky130_fd_sc_hd__buf_8
*CAP
1 spine_top_iw[1] 0.000263261
2 *2468:X 0.000263261
3 spine_top_iw[1] spine_top_iw[2] 8.2946e-05
4 spine_top_iw[0] spine_top_iw[1] 8.2946e-05
5 *2487:A spine_top_iw[1] 0
*RES
1 *2468:X spine_top_iw[1] 6.40983 
*END

*D_NET *118 0.00201065
*CONN
*P spine_top_iw[20] O
*I *2488:X O *D sky130_fd_sc_hd__buf_8
*CAP
1 spine_top_iw[20] 0.000676144
2 *2488:X 0.000676144
3 spine_top_iw[20] spine_top_iw[21] 0.00051893
4 spine_top_iw[19] spine_top_iw[20] 0.000139429
5 *2489:A spine_top_iw[20] 0
*RES
1 *2488:X spine_top_iw[20] 6.9605 
*END

*D_NET *119 0.00279037
*CONN
*P spine_top_iw[21] O
*I *2490:X O *D sky130_fd_sc_hd__buf_8
*CAP
1 spine_top_iw[21] 0.000619903
2 *2490:X 0.000619903
3 spine_top_iw[21] spine_top_iw[22] 0.000880798
4 spine_top_iw[21] spine_top_iw[23] 4.5387e-05
5 spine_top_iw[21] *2488:A 8.75364e-05
6 spine_top_iw[21] *2490:A 0
7 spine_top_iw[21] *2628:A 0
8 spine_top_iw[19] spine_top_iw[21] 1.79088e-05
9 spine_top_iw[20] spine_top_iw[21] 0.00051893
10 *2489:A spine_top_iw[21] 0
*RES
1 *2490:X spine_top_iw[21] 7.9839 
*END

*D_NET *120 0.00224005
*CONN
*P spine_top_iw[22] O
*I *2492:X O *D sky130_fd_sc_hd__buf_8
*CAP
1 spine_top_iw[22] 0.00049272
2 *2492:X 0.00049272
3 spine_top_iw[22] spine_top_iw[23] 0.000186386
4 spine_top_iw[22] spine_top_iw[24] 0.000132914
5 spine_top_iw[22] *2490:A 0
6 spine_top_iw[22] *2492:A 1.72991e-05
7 spine_top_iw[22] *2628:A 0
8 spine_top_iw[17] spine_top_iw[22] 1.86045e-05
9 spine_top_iw[18] spine_top_iw[22] 1.86045e-05
10 spine_top_iw[19] spine_top_iw[22] 0
11 spine_top_iw[21] spine_top_iw[22] 0.000880798
*RES
1 *2492:X spine_top_iw[22] 7.0939 
*END

*D_NET *121 0.00123246
*CONN
*P spine_top_iw[23] O
*I *2494:X O *D sky130_fd_sc_hd__buf_8
*CAP
1 spine_top_iw[23] 0.000428407
2 *2494:X 0.000428407
3 spine_top_iw[23] spine_top_iw[24] 0.000143874
4 spine_top_iw[21] spine_top_iw[23] 4.5387e-05
5 spine_top_iw[22] spine_top_iw[23] 0.000186386
*RES
1 *2494:X spine_top_iw[23] 7.6967 
*END

*D_NET *122 0.00191399
*CONN
*P spine_top_iw[24] O
*I *2496:X O *D sky130_fd_sc_hd__buf_8
*CAP
1 spine_top_iw[24] 0.000669014
2 *2496:X 0.000669014
3 spine_top_iw[24] spine_top_iw[25] 0.000294984
4 spine_top_iw[24] *2494:A 0
5 spine_top_iw[24] *2496:A 0
6 spine_top_iw[24] *2628:A 0
7 spine_top_iw[19] spine_top_iw[24] 0
8 spine_top_iw[22] spine_top_iw[24] 0.000132914
9 spine_top_iw[23] spine_top_iw[24] 0.000143874
10 *2493:A spine_top_iw[24] 4.18603e-06
*RES
1 *2496:X spine_top_iw[24] 7.82003 
*END

*D_NET *123 0.00111443
*CONN
*P spine_top_iw[25] O
*I *2498:X O *D sky130_fd_sc_hd__buf_8
*CAP
1 spine_top_iw[25] 0.000333854
2 *2498:X 0.000333854
3 spine_top_iw[25] spine_top_iw[26] 0.000139429
4 spine_top_iw[25] *2498:A 1.23107e-05
5 spine_top_iw[25] *2628:A 0
6 spine_top_iw[24] spine_top_iw[25] 0.000294984
*RES
1 *2498:X spine_top_iw[25] 6.2199 
*END

*D_NET *124 0.000837278
*CONN
*P spine_top_iw[26] O
*I *2500:X O *D sky130_fd_sc_hd__buf_8
*CAP
1 spine_top_iw[26] 0.000274163
2 *2500:X 0.000274163
3 spine_top_iw[26] spine_top_iw[27] 0.000149523
4 spine_top_iw[26] spine_top_iw[28] 0
5 spine_top_iw[26] *2498:A 0
6 spine_top_iw[26] *2500:A 0
7 spine_top_iw[26] *2502:A 0
8 spine_top_iw[25] spine_top_iw[26] 0.000139429
*RES
1 *2500:X spine_top_iw[26] 7.6823 
*END

*D_NET *125 0.000514198
*CONN
*P spine_top_iw[27] O
*I *2502:X O *D sky130_fd_sc_hd__buf_8
*CAP
1 spine_top_iw[27] 0.000112623
2 *2502:X 0.000112623
3 spine_top_iw[27] spine_top_iw[28] 0.000139429
4 spine_top_iw[26] spine_top_iw[27] 0.000149523
*RES
1 *2502:X spine_top_iw[27] 5.32903 
*END

*D_NET *126 0.000909202
*CONN
*P spine_top_iw[28] O
*I *2504:X O *D sky130_fd_sc_hd__buf_8
*CAP
1 spine_top_iw[28] 0.000258492
2 *2504:X 0.000258492
3 spine_top_iw[28] spine_top_iw[29] 0.000111189
4 spine_top_iw[28] *2502:A 0.000141599
5 spine_top_iw[26] spine_top_iw[28] 0
6 spine_top_iw[27] spine_top_iw[28] 0.000139429
*RES
1 *2504:X spine_top_iw[28] 7.23057 
*END

*D_NET *127 0.000406751
*CONN
*P spine_top_iw[29] O
*I *2515:LO O *D sky130_fd_sc_hd__conb_1
*CAP
1 spine_top_iw[29] 0.000147781
2 *2515:LO 0.000147781
3 spine_top_iw[29] *2568:DIODE 0
4 spine_top_iw[28] spine_top_iw[29] 0.000111189
*RES
1 *2515:LO spine_top_iw[29] 5.2429 
*END

*D_NET *128 0.00241171
*CONN
*P spine_top_iw[2] O
*I *2505:X O *D sky130_fd_sc_hd__buf_8
*CAP
1 spine_top_iw[2] 0.000546682
2 *2505:X 0.000546682
3 spine_top_iw[2] spine_top_iw[3] 0.000461528
4 spine_top_iw[2] *2629:A 0.000185398
5 spine_top_iw[2] *2663:A 0.000560094
6 spine_top_iw[0] spine_top_iw[2] 5.79828e-06
7 spine_top_iw[1] spine_top_iw[2] 8.2946e-05
8 *2487:A spine_top_iw[2] 2.25816e-05
*RES
1 *2505:X spine_top_iw[2] 13.2408 
*END

*D_NET *129 0.00233115
*CONN
*P spine_top_iw[3] O
*I *2506:X O *D sky130_fd_sc_hd__buf_8
*CAP
1 spine_top_iw[3] 0.000622596
2 *2506:X 0.000622596
3 spine_top_iw[3] spine_top_iw[4] 0.000316998
4 spine_top_iw[3] spine_top_iw[5] 0
5 spine_top_iw[3] spine_top_iw[6] 0
6 spine_top_iw[3] *2629:A 0.000178504
7 spine_top_iw[3] *192:19 0.000105068
8 spine_top_iw[2] spine_top_iw[3] 0.000461528
9 *2487:A spine_top_iw[3] 2.38558e-05
*RES
1 *2506:X spine_top_iw[3] 15.0258 
*END

*D_NET *130 0.00177298
*CONN
*P spine_top_iw[4] O
*I *2507:X O *D sky130_fd_sc_hd__buf_8
*CAP
1 spine_top_iw[4] 0.000482901
2 *2507:X 0.000482901
3 spine_top_iw[4] spine_top_iw[5] 0.000430676
4 spine_top_iw[4] spine_top_iw[6] 1.62527e-05
5 spine_top_iw[3] spine_top_iw[4] 0.000316998
6 *2487:A spine_top_iw[4] 4.3249e-05
*RES
1 *2507:X spine_top_iw[4] 10.522 
*END

*D_NET *131 0.00224927
*CONN
*P spine_top_iw[5] O
*I *2508:X O *D sky130_fd_sc_hd__buf_8
*CAP
1 spine_top_iw[5] 0.000539252
2 *2508:X 0.000539252
3 spine_top_iw[5] spine_top_iw[6] 0.000529172
4 spine_top_iw[5] *2468:A 0
5 spine_top_iw[5] *194:19 0.000187064
6 spine_top_iw[3] spine_top_iw[5] 0
7 spine_top_iw[4] spine_top_iw[5] 0.000430676
8 *2487:A spine_top_iw[5] 2.38558e-05
*RES
1 *2508:X spine_top_iw[5] 13.2408 
*END

*D_NET *132 0.0037249
*CONN
*P spine_top_iw[6] O
*I *2509:X O *D sky130_fd_sc_hd__buf_8
*CAP
1 spine_top_iw[6] 0.000954682
2 *2509:X 0.000954682
3 spine_top_iw[6] spine_top_iw[7] 0.000565905
4 spine_top_iw[6] *192:19 0
5 spine_top_iw[6] *193:12 0.000201305
6 spine_top_iw[6] *194:19 0.00037126
7 spine_top_iw[3] spine_top_iw[6] 0
8 spine_top_iw[4] spine_top_iw[6] 1.62527e-05
9 spine_top_iw[5] spine_top_iw[6] 0.000529172
10 *2491:A spine_top_iw[6] 0.000131643
*RES
1 *2509:X spine_top_iw[6] 16.9435 
*END

*D_NET *133 0.00630716
*CONN
*P spine_top_iw[7] O
*I *2510:X O *D sky130_fd_sc_hd__buf_8
*CAP
1 spine_top_iw[7] 0.00221989
2 *2510:X 0.00221989
3 spine_top_iw[7] spine_top_iw[8] 0.00130147
4 spine_top_iw[7] *2509:A 0
5 spine_top_iw[7] *2513:A 0
6 spine_top_iw[7] *195:17 0
7 spine_top_iw[6] spine_top_iw[7] 0.000565905
*RES
1 *2510:X spine_top_iw[7] 32.9883 
*END

*D_NET *134 0.00563057
*CONN
*P spine_top_iw[8] O
*I *2511:X O *D sky130_fd_sc_hd__buf_8
*CAP
1 spine_top_iw[8] 0.00177024
2 *2511:X 0.00177024
3 spine_top_iw[8] spine_top_iw[9] 2.43986e-05
4 spine_top_iw[8] *2513:A 0.000555782
5 spine_top_iw[8] *195:17 0.000147293
6 spine_top_iw[10] spine_top_iw[8] 6.11579e-05
7 spine_top_iw[13] spine_top_iw[8] 0
8 spine_top_iw[7] spine_top_iw[8] 0.00130147
*RES
1 *2511:X spine_top_iw[8] 16.2344 
*END

*D_NET *135 0.00169888
*CONN
*P spine_top_iw[9] O
*I *2512:X O *D sky130_fd_sc_hd__buf_8
*CAP
1 spine_top_iw[9] 0.00078417
2 *2512:X 0.00078417
3 spine_top_iw[9] *2468:A 0
4 spine_top_iw[9] *2472:A 7.72994e-05
5 spine_top_iw[10] spine_top_iw[9] 2.88432e-05
6 spine_top_iw[11] spine_top_iw[9] 0
7 spine_top_iw[12] spine_top_iw[9] 0
8 spine_top_iw[8] spine_top_iw[9] 2.43986e-05
9 *2471:A spine_top_iw[9] 0
*RES
1 *2512:X spine_top_iw[9] 15.556 
*END

*D_NET *136 0.000677947
*CONN
*P spine_top_ow[0] I
*I *2568:DIODE I *D sky130_fd_sc_hd__diode_2
*CAP
1 spine_top_ow[0] 0.000267037
2 *2568:DIODE 0.000267037
3 *2568:DIODE spine_top_ow[1] 0.000143874
4 spine_top_iw[29] *2568:DIODE 0
*RES
1 spine_top_ow[0] *2568:DIODE 6.85903 
*END

*D_NET *137 0.00222754
*CONN
*P spine_top_ow[10] I
*I *2650:A I *D sky130_fd_sc_hd__inv_2
*I *2579:DIODE I *D sky130_fd_sc_hd__diode_2
*I *2418:Z O *D sky130_fd_sc_hd__ebufn_1
*CAP
1 spine_top_ow[10] 0.000381897
2 *2650:A 0.000220069
3 *2579:DIODE 0
4 *2418:Z 0.000414826
5 *137:10 0.000576655
6 spine_top_ow[10] spine_top_ow[11] 0.000130179
7 spine_top_ow[10] spine_top_ow[9] 0.000144636
8 *2650:A *2417:TE_B 4.25093e-05
9 *2650:A *2649:A 0
10 *2650:A *2652:A0 8.77516e-05
11 *2650:A *170:216 8.57024e-05
12 *2650:A *171:171 4.18603e-06
13 *2650:A *171:182 5.12855e-05
14 *137:10 *2396:A 3.72916e-05
15 *2501:A *2650:A 5.05521e-05
*RES
1 *2418:Z *137:10 6.54 
2 *137:10 *2579:DIODE 3.6 
3 *137:10 spine_top_ow[10] 2.7077 
4 *2418:Z *2650:A 11.115 
*END

*D_NET *138 0.00163251
*CONN
*P spine_top_ow[11] I
*I *2580:DIODE I *D sky130_fd_sc_hd__diode_2
*I *2636:A I *D sky130_fd_sc_hd__inv_2
*I *2396:Z O *D sky130_fd_sc_hd__ebufn_1
*CAP
1 spine_top_ow[11] 0.000183175
2 *2580:DIODE 0
3 *2636:A 0.000173905
4 *2396:Z 0.000168585
5 *138:19 0.000311465
6 *138:8 0.000470781
7 spine_top_ow[11] spine_top_ow[12] 0.000111189
8 spine_top_ow[11] spine_top_ow[9] 5.03912e-06
9 *2636:A spine_top_ow[12] 0
10 *2636:A spine_top_ow[7] 0
11 *2636:A *2689:A1 7.55313e-05
12 *2636:A *139:8 0
13 *2636:A *159:10 0
14 *138:8 *2396:TE_B 2.65814e-06
15 *138:19 spine_top_ow[12] 0
16 spine_top_ow[10] spine_top_ow[11] 0.000130179
17 *23:59 *2636:A 0
*RES
1 *2396:Z *138:8 5.43 
2 *138:8 *2636:A 6.51 
3 *138:8 *138:19 2.145 
4 *138:19 *2580:DIODE 3.6 
5 *138:19 spine_top_ow[11] 1.87597 
*END

*D_NET *139 0.00123712
*CONN
*P spine_top_ow[12] I
*I *2637:A I *D sky130_fd_sc_hd__inv_2
*I *2581:DIODE I *D sky130_fd_sc_hd__diode_2
*I *2397:Z O *D sky130_fd_sc_hd__ebufn_1
*CAP
1 spine_top_ow[12] 0.000244794
2 *2637:A 2.50091e-05
3 *2581:DIODE 0
4 *2397:Z 0.000160657
5 *139:8 0.000380441
6 spine_top_ow[12] spine_top_ow[13] 0.0001146
7 *2637:A *170:70 0.000124007
8 *139:8 *140:21 0
9 spine_top_ow[11] spine_top_ow[12] 0.000111189
10 *2636:A spine_top_ow[12] 0
11 *2636:A *139:8 0
12 *23:59 *139:8 4.18603e-06
13 *24:44 *2637:A 7.22354e-05
14 *138:19 spine_top_ow[12] 0
*RES
1 *2397:Z *139:8 5.745 
2 *139:8 *2581:DIODE 3.6 
3 *139:8 spine_top_ow[12] 3.74117 
4 *2397:Z *2637:A 4.34 
*END

*D_NET *140 0.00188552
*CONN
*P spine_top_ow[13] I
*I *2582:DIODE I *D sky130_fd_sc_hd__diode_2
*I *2638:A I *D sky130_fd_sc_hd__inv_2
*I *2398:Z O *D sky130_fd_sc_hd__ebufn_1
*CAP
1 spine_top_ow[13] 0.000199765
2 *2582:DIODE 0
3 *2638:A 0.000211572
4 *2398:Z 5.74818e-05
5 *140:21 0.00033256
6 *140:8 0.000401849
7 spine_top_ow[13] spine_top_ow[14] 0.00022963
8 spine_top_ow[13] spine_top_ow[9] 0
9 spine_top_ow[13] *2628:A 0
10 *2638:A *2619:A1 0
11 *2638:A *238:74 0.0001249
12 spine_top_ow[12] spine_top_ow[13] 0.0001146
13 *23:59 *2638:A 0.00012657
14 *24:44 *140:8 8.65905e-05
15 *139:8 *140:21 0
*RES
1 *2398:Z *140:8 4.395 
2 *140:8 *2638:A 7.395 
3 *140:8 *140:21 2.145 
4 *140:21 *2582:DIODE 3.6 
5 *140:21 spine_top_ow[13] 1.98743 
*END

*D_NET *141 0.00334703
*CONN
*P spine_top_ow[14] I
*I *2639:A I *D sky130_fd_sc_hd__inv_2
*I *2584:DIODE I *D sky130_fd_sc_hd__diode_2
*I *2399:Z O *D sky130_fd_sc_hd__ebufn_1
*CAP
1 spine_top_ow[14] 0.00104035
2 *2639:A 2.11983e-05
3 *2584:DIODE 0.000351081
4 *2399:Z 0
5 *141:6 0.00137023
6 spine_top_ow[14] spine_top_ow[15] 0.000197976
7 spine_top_ow[14] spine_top_ow[19] 0
8 spine_top_ow[14] *2619:A0 0
9 *2584:DIODE *2619:A0 0
10 *2584:DIODE *2655:A0 0
11 *2584:DIODE *2696:A 8.8266e-05
12 *2639:A *2696:A 4.82919e-05
13 spine_top_ow[13] spine_top_ow[14] 0.00022963
*RES
1 *2399:Z *141:6 3.6 
2 *141:6 *2584:DIODE 8.58 
3 *141:6 spine_top_ow[14] 4.05463 
4 *2584:DIODE *2639:A 3.65 
*END

*D_NET *142 0.00307255
*CONN
*P spine_top_ow[15] I
*I *2585:DIODE I *D sky130_fd_sc_hd__diode_2
*I *2640:A I *D sky130_fd_sc_hd__inv_2
*I *2400:Z O *D sky130_fd_sc_hd__ebufn_1
*CAP
1 spine_top_ow[15] 0.00061493
2 *2585:DIODE 0
3 *2640:A 2.66517e-05
4 *2400:Z 0.000181685
5 *142:22 0.000769964
6 spine_top_ow[15] spine_top_ow[16] 0.000691848
7 spine_top_ow[15] spine_top_ow[17] 8.33683e-05
8 spine_top_ow[15] spine_top_ow[18] 4.00045e-05
9 spine_top_ow[15] spine_top_ow[19] 5.20496e-06
10 spine_top_ow[15] spine_top_ow[20] 1.60558e-05
11 spine_top_ow[15] *2628:A 0
12 spine_top_ow[15] *148:21 2.09442e-05
13 *2640:A *170:82 0.000122701
14 *2640:A *171:80 7.05395e-05
15 *142:22 *2403:A 0.000116165
16 *142:22 *2409:TE_B 0
17 *142:22 *148:21 2.75538e-05
18 *142:22 *171:80 8.696e-05
19 spine_top_ow[14] spine_top_ow[15] 0.000197976
*RES
1 *2400:Z *2640:A 4.34 
2 *2400:Z *142:22 6.54 
3 *142:22 *2585:DIODE 3.6 
4 *142:22 spine_top_ow[15] 3.69317 
*END

*D_NET *143 0.00294742
*CONN
*P spine_top_ow[16] I
*I *2586:DIODE I *D sky130_fd_sc_hd__diode_2
*I *2641:A I *D sky130_fd_sc_hd__inv_2
*I *2401:Z O *D sky130_fd_sc_hd__ebufn_1
*CAP
1 spine_top_ow[16] 0.000667885
2 *2586:DIODE 0.000719751
3 *2641:A 0
4 *2401:Z 9.12343e-05
5 *143:10 0.0001431
6 spine_top_ow[16] spine_top_ow[17] 0.000168703
7 spine_top_ow[16] spine_top_ow[18] 0
8 spine_top_ow[16] *2403:TE_B 2.49909e-05
9 spine_top_ow[16] *2409:TE_B 5.83121e-06
10 spine_top_ow[16] *148:21 6.78266e-05
11 spine_top_ow[16] *309:16 0.000155728
12 *2586:DIODE *2409:TE_B 0.000123319
13 *143:10 *2409:A 1.31735e-05
14 *143:10 *2409:TE_B 0
15 *143:10 *2658:A1 7.4027e-05
16 *143:10 *2665:A 0
17 spine_top_ow[15] spine_top_ow[16] 0.000691848
*RES
1 *2401:Z *143:10 7.235 
2 *143:10 *2641:A 1.6 
3 *143:10 *2586:DIODE 2.74 
4 *2586:DIODE spine_top_ow[16] 11.6926 
*END

*D_NET *144 0.00161728
*CONN
*P spine_top_ow[17] I
*I *2587:DIODE I *D sky130_fd_sc_hd__diode_2
*I *2617:A I *D sky130_fd_sc_hd__buf_2
*I *2402:Z O *D sky130_fd_sc_hd__ebufn_1
*CAP
1 spine_top_ow[17] 0.000190912
2 *2587:DIODE 0
3 *2617:A 1.86282e-05
4 *2402:Z 0.00019672
5 *144:22 0.000369003
6 spine_top_ow[17] spine_top_ow[18] 0.000214889
7 *2617:A *170:76 0.0001249
8 *2617:A *171:106 0.0001249
9 *144:22 *2620:A1 3.86607e-05
10 spine_top_ow[15] spine_top_ow[17] 8.33683e-05
11 spine_top_ow[16] spine_top_ow[17] 0.000168703
12 *24:44 *144:22 8.65961e-05
*RES
1 *2402:Z *2617:A 4.34 
2 *2402:Z *144:22 6.54 
3 *144:22 *2587:DIODE 3.6 
4 *144:22 spine_top_ow[17] 2.0457 
*END

*D_NET *145 0.00104179
*CONN
*P spine_top_ow[18] I
*I *2618:A I *D sky130_fd_sc_hd__buf_2
*I *2588:DIODE I *D sky130_fd_sc_hd__diode_2
*I *2403:Z O *D sky130_fd_sc_hd__ebufn_1
*CAP
1 spine_top_ow[18] 0.000163886
2 *2618:A 5.00733e-05
3 *2588:DIODE 5.00733e-05
4 *2403:Z 7.03316e-05
5 *145:6 0.000234217
6 spine_top_ow[18] spine_top_ow[19] 0.000218312
7 spine_top_ow[15] spine_top_ow[18] 4.00045e-05
8 spine_top_ow[16] spine_top_ow[18] 0
9 spine_top_ow[17] spine_top_ow[18] 0.000214889
*RES
1 *2403:Z *145:6 2.395 
2 *145:6 spine_top_ow[18] 3.98743 
3 *145:6 *2588:DIODE 1.6 
4 *2588:DIODE *2618:A 3.995 
*END

*D_NET *146 0.00283639
*CONN
*P spine_top_ow[19] I
*I *2589:DIODE I *D sky130_fd_sc_hd__diode_2
*I *2604:A I *D sky130_fd_sc_hd__buf_2
*I *2404:Z O *D sky130_fd_sc_hd__ebufn_1
*CAP
1 spine_top_ow[19] 0.000369773
2 *2589:DIODE 0
3 *2604:A 8.46786e-05
4 *2404:Z 8.6021e-05
5 *146:19 0.000679846
6 *146:8 0.000480772
7 spine_top_ow[19] spine_top_ow[20] 0.000111189
8 spine_top_ow[19] spine_top_ow[21] 5.18726e-05
9 spine_top_ow[19] *309:16 1.10537e-05
10 *2604:A *2693:A 0.000198945
11 *146:8 *2605:A 2.97004e-06
12 *146:8 *148:21 5.4256e-05
13 *146:8 *238:124 0
14 *146:19 *2620:A0 0
15 *146:19 *2620:A1 0
16 *146:19 *2628:A 0
17 *146:19 *148:21 6.10789e-05
18 *146:19 *238:122 0
19 *146:19 *238:124 0
20 *146:19 *309:16 0.000420419
21 spine_top_ow[14] spine_top_ow[19] 0
22 spine_top_ow[15] spine_top_ow[19] 5.20496e-06
23 spine_top_ow[18] spine_top_ow[19] 0.000218312
24 *24:44 *146:19 0
*RES
1 *2404:Z *146:8 5.235 
2 *146:8 *2604:A 5.43 
3 *146:8 *146:19 6.735 
4 *146:19 *2589:DIODE 3.6 
5 *146:19 spine_top_ow[19] 2.33197 
*END

*D_NET *147 0.00320703
*CONN
*P spine_top_ow[1] I
*I *2569:DIODE I *D sky130_fd_sc_hd__diode_2
*I *2681:A I *D sky130_fd_sc_hd__inv_2
*I *2395:Z O *D sky130_fd_sc_hd__ebufn_1
*CAP
1 spine_top_ow[1] 0.000712431
2 *2569:DIODE 0
3 *2681:A 0.000139775
4 *2395:Z 6.38419e-05
5 *147:19 0.00081777
6 *147:8 0.000308955
7 spine_top_ow[1] spine_top_ow[2] 0.000226219
8 spine_top_ow[1] spine_top_ow[3] 2.03026e-05
9 spine_top_ow[1] *2406:TE_B 0.000109412
10 spine_top_ow[1] *2570:DIODE 0.00046509
11 spine_top_ow[1] *2628:A 0
12 *2681:A *170:10 6.44307e-05
13 *2681:A *170:19 3.46842e-05
14 *2681:A *238:224 0
15 *147:8 *258:6 2.77283e-05
16 *147:19 *2406:TE_B 2.9664e-05
17 *147:19 *170:19 4.28483e-05
18 *2568:DIODE spine_top_ow[1] 0.000143874
*RES
1 *2395:Z *147:8 4.395 
2 *147:8 *2681:A 6.51 
3 *147:8 *147:19 2.145 
4 *147:19 *2569:DIODE 3.6 
5 *147:19 spine_top_ow[1] 10.9741 
*END

*D_NET *148 0.00306873
*CONN
*P spine_top_ow[20] I
*I *2590:DIODE I *D sky130_fd_sc_hd__diode_2
*I *2605:A I *D sky130_fd_sc_hd__buf_2
*I *2405:Z O *D sky130_fd_sc_hd__ebufn_1
*CAP
1 spine_top_ow[20] 9.07129e-05
2 *2590:DIODE 0
3 *2605:A 0.000160883
4 *2405:Z 8.49389e-05
5 *148:21 0.00063586
6 *148:8 0.000790969
7 spine_top_ow[20] spine_top_ow[21] 0.0001146
8 *2605:A *171:21 7.44453e-05
9 *2605:A *171:132 8.65961e-05
10 *2605:A *238:124 0
11 *2605:A *238:126 0
12 *2605:A *238:141 8.8266e-05
13 *148:8 *2404:TE_B 7.35729e-05
14 *148:21 *2403:A 7.63282e-05
15 *148:21 *2403:TE_B 0.000204463
16 *148:21 *2657:A1 4.83411e-05
17 *148:21 *170:88 0
18 *148:21 *309:16 0.000176876
19 spine_top_ow[15] spine_top_ow[20] 1.60558e-05
20 spine_top_ow[15] *148:21 2.09442e-05
21 spine_top_ow[16] *148:21 6.78266e-05
22 spine_top_ow[19] spine_top_ow[20] 0.000111189
23 *142:22 *148:21 2.75538e-05
24 *146:8 *2605:A 2.97004e-06
25 *146:8 *148:21 5.4256e-05
26 *146:19 *148:21 6.10789e-05
*RES
1 *2405:Z *148:8 4.74 
2 *148:8 *2605:A 7.05 
3 *148:8 *148:21 12.345 
4 *148:21 *2590:DIODE 3.6 
5 *148:21 spine_top_ow[20] 1.6429 
*END

*D_NET *149 0.00374371
*CONN
*P spine_top_ow[21] I
*I *2591:DIODE I *D sky130_fd_sc_hd__diode_2
*I *2606:A I *D sky130_fd_sc_hd__buf_2
*I *2407:Z O *D sky130_fd_sc_hd__ebufn_1
*CAP
1 spine_top_ow[21] 0.00142122
2 *2591:DIODE 0
3 *2606:A 8.71166e-05
4 *2407:Z 0.000142638
5 *149:24 0.00147674
6 spine_top_ow[21] spine_top_ow[22] 0.000111189
7 spine_top_ow[21] spine_top_ow[23] 3.75394e-05
8 spine_top_ow[21] spine_top_ow[24] 0
9 spine_top_ow[21] *2407:TE_B 0
10 *2606:A *2657:A0 0.000139252
11 *2606:A *2691:A 4.82919e-05
12 *2606:A *2695:A 2.49909e-05
13 *149:24 *171:15 8.8266e-05
14 spine_top_ow[19] spine_top_ow[21] 5.18726e-05
15 spine_top_ow[20] spine_top_ow[21] 0.0001146
*RES
1 *2407:Z *2606:A 9.285 
2 *2407:Z *149:24 2.395 
3 *149:24 spine_top_ow[21] 6.2877 
4 *149:24 *2591:DIODE 1.6 
*END

*D_NET *150 0.00236506
*CONN
*P spine_top_ow[22] I
*I *2592:DIODE I *D sky130_fd_sc_hd__diode_2
*I *2607:A I *D sky130_fd_sc_hd__buf_2
*I *2408:Z O *D sky130_fd_sc_hd__ebufn_1
*CAP
1 spine_top_ow[22] 0.00036071
2 *2592:DIODE 0.000641552
3 *2607:A 0
4 *2408:Z 0.000174241
5 *150:8 0.000455082
6 spine_top_ow[22] spine_top_ow[23] 0.000111189
7 spine_top_ow[22] *2596:DIODE 9.5799e-06
8 *2592:DIODE spine_top_ow[23] 1.22505e-05
9 *2592:DIODE *2608:A 0.000129047
10 *2592:DIODE *2665:A 7.35813e-05
11 *150:8 *2608:A 0.000286642
12 *150:8 *2658:A0 0
13 *150:8 *2665:A 0
14 spine_top_ow[21] spine_top_ow[22] 0.000111189
*RES
1 *2408:Z *150:8 7.02 
2 *150:8 *2607:A 3.6 
3 *150:8 *2592:DIODE 8.415 
4 *2592:DIODE spine_top_ow[22] 5.82557 
*END

*D_NET *151 0.00283241
*CONN
*P spine_top_ow[23] I
*I *2608:A I *D sky130_fd_sc_hd__buf_2
*I *2593:DIODE I *D sky130_fd_sc_hd__diode_2
*I *2409:Z O *D sky130_fd_sc_hd__ebufn_1
*CAP
1 spine_top_ow[23] 0.000494082
2 *2608:A 0.000191872
3 *2593:DIODE 4.28024e-05
4 *2409:Z 0.000494082
5 *151:4 0.000234674
6 spine_top_ow[23] spine_top_ow[24] 0.000277565
7 spine_top_ow[23] *2596:DIODE 0
8 spine_top_ow[23] *2665:A 6.63219e-06
9 *2593:DIODE *2697:A 1.1392e-05
10 *2608:A spine_top_ow[24] 1.88271e-05
11 *2608:A *2658:A0 0
12 spine_top_ow[21] spine_top_ow[23] 3.75394e-05
13 spine_top_ow[22] spine_top_ow[23] 0.000111189
14 *2592:DIODE spine_top_ow[23] 1.22505e-05
15 *2592:DIODE *2608:A 0.000129047
16 *23:13 *2608:A 0.000344577
17 *23:15 *2608:A 0.000139238
18 *150:8 *2608:A 0.000286642
*RES
1 *2409:Z *151:4 1.6 
2 *151:4 *2593:DIODE 2.05 
3 *151:4 *2608:A 11.315 
4 *2409:Z spine_top_ow[23] 6.22583 
*END

*D_NET *152 0.00290744
*CONN
*P spine_top_ow[24] I
*I *2595:DIODE I *D sky130_fd_sc_hd__diode_2
*I *2609:A I *D sky130_fd_sc_hd__buf_2
*I *2410:Z O *D sky130_fd_sc_hd__ebufn_1
*CAP
1 spine_top_ow[24] 0.00107274
2 *2595:DIODE 0
3 *2609:A 2.11983e-05
4 *2410:Z 0.00015304
5 *152:20 0.00120459
6 spine_top_ow[24] *2596:DIODE 0.000111189
7 spine_top_ow[24] *2658:A0 0
8 *2609:A *2694:A 4.82919e-05
9 *152:20 *2658:A0 0
10 pad_uio_oe_n[4] spine_top_ow[24] 0
11 spine_top_ow[21] spine_top_ow[24] 0
12 spine_top_ow[23] spine_top_ow[24] 0.000277565
13 *2608:A spine_top_ow[24] 1.88271e-05
14 *23:15 spine_top_ow[24] 0
15 *23:15 *152:20 0
*RES
1 *2410:Z *2609:A 3.65 
2 *2410:Z *152:20 5.745 
3 *152:20 *2595:DIODE 3.6 
4 *152:20 spine_top_ow[24] 4.87023 
*END

*D_NET *153 0.000399288
*CONN
*P spine_top_ow[25] I
*I *2596:DIODE I *D sky130_fd_sc_hd__diode_2
*CAP
1 spine_top_ow[25] 0.00013926
2 *2596:DIODE 0.00013926
3 pad_uio_oe_n[4] *2596:DIODE 0
4 spine_top_ow[22] *2596:DIODE 9.5799e-06
5 spine_top_ow[23] *2596:DIODE 0
6 spine_top_ow[24] *2596:DIODE 0.000111189
*RES
1 spine_top_ow[25] *2596:DIODE 5.2429 
*END

*D_NET *154 0.00230585
*CONN
*P spine_top_ow[2] I
*I *2682:A I *D sky130_fd_sc_hd__inv_2
*I *2570:DIODE I *D sky130_fd_sc_hd__diode_2
*I *2406:Z O *D sky130_fd_sc_hd__ebufn_1
*CAP
1 spine_top_ow[2] 0.000153068
2 *2682:A 1.68603e-05
3 *2570:DIODE 0.000573326
4 *2406:Z 0
5 *154:4 0.000437119
6 spine_top_ow[2] spine_top_ow[3] 0.00022963
7 spine_top_ow[2] *2628:A 0
8 *2570:DIODE *2406:TE_B 4.43871e-06
9 *2570:DIODE *2684:A1 0.000162311
10 *2570:DIODE *238:267 0
11 *2682:A *2684:A1 3.77879e-05
12 spine_top_ow[1] spine_top_ow[2] 0.000226219
13 spine_top_ow[1] *2570:DIODE 0.00046509
*RES
1 *2406:Z *154:4 1.6 
2 *154:4 *2570:DIODE 13.595 
3 *154:4 *2682:A 2.05 
4 *2570:DIODE spine_top_ow[2] 5.6457 
*END

*D_NET *155 0.00297973
*CONN
*P spine_top_ow[3] I
*I *2571:DIODE I *D sky130_fd_sc_hd__diode_2
*I *2668:A I *D sky130_fd_sc_hd__inv_2
*I *2411:Z O *D sky130_fd_sc_hd__ebufn_1
*CAP
1 spine_top_ow[3] 0.000534607
2 *2571:DIODE 4.45078e-05
3 *2668:A 0
4 *2411:Z 0.000130723
5 *155:12 4.45078e-05
6 *155:10 0.00066533
7 spine_top_ow[3] spine_top_ow[4] 0.000577898
8 spine_top_ow[3] *2627:A 4.5387e-05
9 spine_top_ow[3] *2684:A0 7.26629e-05
10 spine_top_ow[3] *238:248 0.000136884
11 spine_top_ow[3] *238:267 5.5391e-05
12 *2571:DIODE *283:16 8.23457e-05
13 *155:10 *2684:A0 7.81876e-05
14 *155:10 *238:248 0.000139933
15 *155:10 *257:6 0.000121437
16 spine_top_ow[1] spine_top_ow[3] 2.03026e-05
17 spine_top_ow[2] spine_top_ow[3] 0.00022963
*RES
1 *2411:Z *155:10 6.375 
2 *155:10 *155:12 2 
3 *155:12 *2668:A 1.6 
4 *155:12 *2571:DIODE 2.395 
5 *155:10 spine_top_ow[3] 5.2637 
*END

*D_NET *156 0.00322422
*CONN
*P spine_top_ow[4] I
*I *2573:DIODE I *D sky130_fd_sc_hd__diode_2
*I *2669:A I *D sky130_fd_sc_hd__inv_2
*I *2412:Z O *D sky130_fd_sc_hd__ebufn_1
*CAP
1 spine_top_ow[4] 0.000429408
2 *2573:DIODE 0
3 *2669:A 9.35206e-05
4 *2412:Z 0.000179702
5 *156:28 0.000515589
6 spine_top_ow[4] spine_top_ow[5] 0.000577898
7 spine_top_ow[4] *2627:A 2.47368e-05
8 spine_top_ow[4] *2651:A0 0.000142994
9 spine_top_ow[4] *2684:A0 3.89528e-05
10 *2669:A *2651:A0 4.7043e-05
11 *2669:A *2687:S 0.000124007
12 *2669:A *305:10 0.000118527
13 *156:28 *2651:A0 0.000185405
14 *156:28 *2684:A0 4.78859e-05
15 *156:28 *2685:A1 7.23602e-05
16 *156:28 *257:6 4.82919e-05
17 spine_top_ow[3] spine_top_ow[4] 0.000577898
*RES
1 *2412:Z *2669:A 9.72 
2 *2412:Z *156:28 6.195 
3 *156:28 *2573:DIODE 3.6 
4 *156:28 spine_top_ow[4] 4.69543 
*END

*D_NET *157 0.00312336
*CONN
*P spine_top_ow[5] I
*I *2574:DIODE I *D sky130_fd_sc_hd__diode_2
*I *2670:A I *D sky130_fd_sc_hd__inv_2
*I *2413:Z O *D sky130_fd_sc_hd__ebufn_1
*CAP
1 spine_top_ow[5] 0.00044277
2 *2574:DIODE 0
3 *2670:A 0.000183799
4 *2413:Z 0
5 *157:23 0.000522583
6 *157:6 0.000263612
7 spine_top_ow[5] spine_top_ow[6] 0.000573797
8 spine_top_ow[5] *2627:A 2.79364e-05
9 spine_top_ow[5] *2651:A0 0
10 spine_top_ow[5] *2652:A0 5.66945e-05
11 *2670:A *2652:A0 9.22128e-05
12 *2670:A *2687:S 0.000124007
13 *2670:A *305:10 0.000122976
14 *157:23 *2651:A0 0
15 *157:23 *2652:A0 6.95422e-05
16 *157:23 *305:10 6.55328e-05
17 spine_top_ow[4] spine_top_ow[5] 0.000577898
*RES
1 *2413:Z *157:6 3.6 
2 *157:6 *2670:A 7.95 
3 *157:6 *157:23 2.145 
4 *157:23 *2574:DIODE 3.6 
5 *157:23 spine_top_ow[5] 4.69543 
*END

*D_NET *158 0.00402325
*CONN
*P spine_top_ow[6] I
*I *2671:A I *D sky130_fd_sc_hd__inv_2
*I *2575:DIODE I *D sky130_fd_sc_hd__diode_2
*I *2414:Z O *D sky130_fd_sc_hd__ebufn_1
*CAP
1 spine_top_ow[6] 0.000730486
2 *2671:A 1.3091e-05
3 *2575:DIODE 0.000189042
4 *2414:Z 0
5 *158:6 0.000906437
6 spine_top_ow[6] spine_top_ow[7] 0.000244175
7 spine_top_ow[6] spine_top_ow[8] 1.06472e-05
8 spine_top_ow[6] *2627:A 5.56871e-05
9 spine_top_ow[6] *170:62 0.000320516
10 spine_top_ow[6] *171:171 0.000327711
11 *2575:DIODE *2652:A0 0.00013317
12 *2575:DIODE *2687:A0 6.35535e-05
13 *2575:DIODE *2691:A 5.30673e-05
14 *2575:DIODE *170:48 0.000160658
15 *2575:DIODE *170:62 7.23602e-05
16 *2575:DIODE *171:171 5.16418e-05
17 *2575:DIODE *306:20 5.05437e-05
18 *2671:A *2691:A 4.82863e-05
19 *2671:A *306:20 1.83756e-05
20 spine_top_ow[5] spine_top_ow[6] 0.000573797
*RES
1 *2414:Z *158:6 3.6 
2 *158:6 *2575:DIODE 9.09 
3 *158:6 spine_top_ow[6] 6.85197 
4 *2575:DIODE *2671:A 3.65 
*END

*D_NET *159 0.0019326
*CONN
*P spine_top_ow[7] I
*I *2672:A I *D sky130_fd_sc_hd__inv_2
*I *2576:DIODE I *D sky130_fd_sc_hd__diode_2
*I *2415:Z O *D sky130_fd_sc_hd__ebufn_1
*CAP
1 spine_top_ow[7] 0.000291659
2 *2672:A 0
3 *2576:DIODE 2.22788e-05
4 *2415:Z 0.000198375
5 *159:19 0.000329298
6 *159:10 0.000258293
7 spine_top_ow[7] spine_top_ow[8] 0.000246812
8 spine_top_ow[7] spine_top_ow[9] 0.000156525
9 spine_top_ow[7] *2628:A 0
10 *2576:DIODE *2396:A 4.82863e-05
11 *159:10 spine_top_ow[8] 6.24838e-05
12 *159:10 *170:62 0
13 *159:10 *170:203 0
14 *159:19 *2396:A 7.44125e-05
15 spine_top_ow[6] spine_top_ow[7] 0.000244175
16 *2636:A spine_top_ow[7] 0
17 *2636:A *159:10 0
*RES
1 *2415:Z *159:10 8.51 
2 *159:10 *2576:DIODE 2.05 
3 *159:10 *159:19 0.795 
4 *159:19 spine_top_ow[7] 4.24837 
5 *159:19 *2672:A 1.6 
*END

*D_NET *160 0.0105512
*CONN
*P spine_top_ow[8] I
*I *2577:DIODE I *D sky130_fd_sc_hd__diode_2
*I *2673:A I *D sky130_fd_sc_hd__inv_2
*I *2416:Z O *D sky130_fd_sc_hd__ebufn_1
*CAP
1 spine_top_ow[8] 0.000839513
2 *2577:DIODE 0.000138391
3 *2673:A 0.000144463
4 *2416:Z 0.00281597
5 *160:10 0.00225931
6 spine_top_ow[8] spine_top_ow[9] 0.000281671
7 spine_top_ow[8] *2628:A 0
8 spine_top_ow[8] *2653:A0 0.000342084
9 spine_top_ow[8] *2689:A1 0.000510598
10 spine_top_ow[8] *170:62 0
11 spine_top_ow[8] *171:156 5.05521e-05
12 spine_top_ow[8] *238:32 0.000226112
13 spine_top_ow[8] *238:45 5.06382e-06
14 *160:10 *2653:A0 0
15 *160:10 *2654:A0 0.000605057
16 *160:10 *2655:A0 0
17 *160:10 *258:6 4.66108e-05
18 spine_top_ow[6] spine_top_ow[8] 1.06472e-05
19 spine_top_ow[7] spine_top_ow[8] 0.000246812
20 *2552:DIODE *2673:A 0.000134588
21 *2552:DIODE *160:10 0.00159275
22 *2642:A *160:10 0
23 *2644:A *160:10 0.000183462
24 *81:22 *2673:A 0
25 *81:22 *160:10 0
26 *83:29 *160:10 5.50989e-05
27 *159:10 spine_top_ow[8] 6.24838e-05
*RES
1 *2416:Z *160:10 49.8 
2 *160:10 *2673:A 6.705 
3 *160:10 *2577:DIODE 5.085 
4 *2416:Z spine_top_ow[8] 17.5839 
*END

*D_NET *161 0.00268953
*CONN
*P spine_top_ow[9] I
*I *2649:A I *D sky130_fd_sc_hd__inv_2
*I *2578:DIODE I *D sky130_fd_sc_hd__diode_2
*I *2417:Z O *D sky130_fd_sc_hd__ebufn_1
*CAP
1 spine_top_ow[9] 0.000523746
2 *2649:A 0.000172447
3 *2578:DIODE 0
4 *2417:Z 0.000230462
5 *161:6 0.000581762
6 spine_top_ow[9] *2628:A 0
7 *2649:A *2651:A1 6.49981e-05
8 *2649:A *2652:A0 0.000160729
9 *2649:A *2652:S 3.09233e-05
10 *2649:A *280:12 8.04121e-05
11 *161:6 *2417:A 5.2397e-05
12 spine_top_ow[10] spine_top_ow[9] 0.000144636
13 spine_top_ow[11] spine_top_ow[9] 5.03912e-06
14 spine_top_ow[13] spine_top_ow[9] 0
15 spine_top_ow[7] spine_top_ow[9] 0.000156525
16 spine_top_ow[8] spine_top_ow[9] 0.000281671
17 *2501:A *2649:A 0.00020378
18 *2650:A *2649:A 0
*RES
1 *2417:Z *161:6 2.395 
2 *161:6 spine_top_ow[9] 4.7449 
3 *161:6 *2578:DIODE 1.6 
4 *2417:Z *2649:A 12.045 
*END

*D_NET *162 0.00259943
*CONN
*I *2544:B I *D sky130_fd_sc_hd__and2_2
*I *2547:B I *D sky130_fd_sc_hd__and2_2
*I *2365:X O *D sky130_fd_sc_hd__buf_2
*CAP
1 *2544:B 0.000173258
2 *2547:B 0.000288457
3 *2365:X 0.000400505
4 *162:12 0.000862221
5 *2544:B *2544:A 7.54262e-05
6 *2544:B *2545:A 2.09848e-05
7 *2547:B *2546:A 4.49585e-05
8 *2547:B *2547:A 8.47372e-05
9 *2547:B *2548:A 5.83121e-06
10 *2547:B *2690:S 0.00011686
11 *2547:B *238:12 0
12 *162:12 *2690:S 0
13 *98:26 *162:12 0.00052619
*RES
1 *2365:X *162:12 13.745 
2 *162:12 *2547:B 11.36 
3 *162:12 *2544:B 4.48 
*END

*D_NET *163 0.0049214
*CONN
*I *2534:CLK I *D sky130_fd_sc_hd__dfrbp_2
*I *2366:X O *D sky130_fd_sc_hd__buf_2
*CAP
1 *2534:CLK 0.00161086
2 *2366:X 0.00161086
3 *2534:CLK *2435:B 3.23663e-05
4 *2534:CLK *2539:RESET_B 5.63018e-05
5 spine_bot_iw[12] *2534:CLK 0.000134634
6 *2427:A *2534:CLK 2.937e-05
7 *2429:A *2534:CLK 2.49909e-05
8 *2435:A *2534:CLK 0.00107481
9 *5:35 *2534:CLK 0.000219667
10 *14:23 *2534:CLK 0.000127531
*RES
1 *2366:X *2534:CLK 34.575 
*END

*D_NET *164 0.0105999
*CONN
*I *2537:RESET_B I *D sky130_fd_sc_hd__dfrbp_2
*I *2536:RESET_B I *D sky130_fd_sc_hd__dfrbp_2
*I *2535:RESET_B I *D sky130_fd_sc_hd__dfrbp_2
*I *2534:RESET_B I *D sky130_fd_sc_hd__dfrbp_2
*I *2542:RESET_B I *D sky130_fd_sc_hd__dfrbp_2
*I *2543:RESET_B I *D sky130_fd_sc_hd__dfrbp_2
*I *2538:RESET_B I *D sky130_fd_sc_hd__dfrbp_2
*I *2541:RESET_B I *D sky130_fd_sc_hd__dfrbp_2
*I *2540:RESET_B I *D sky130_fd_sc_hd__dfrbp_2
*I *2539:RESET_B I *D sky130_fd_sc_hd__dfrbp_2
*I *2367:X O *D sky130_fd_sc_hd__buf_2
*CAP
1 *2537:RESET_B 0
2 *2536:RESET_B 0
3 *2535:RESET_B 0
4 *2534:RESET_B 0.000216908
5 *2542:RESET_B 0.000172142
6 *2543:RESET_B 0
7 *2538:RESET_B 0.000530536
8 *2541:RESET_B 0.000177193
9 *2540:RESET_B 0.000652283
10 *2539:RESET_B 0.00133259
11 *2367:X 0.000837949
12 *164:93 0.000381806
13 *164:91 0.000373892
14 *164:89 0.000460263
15 *164:64 0.000355815
16 *164:52 0.000633986
17 *164:39 0.00050588
18 *2534:RESET_B *2422:A 0
19 *2534:RESET_B *173:118 0.0001369
20 *2534:RESET_B *173:120 0.000197788
21 *2534:RESET_B *224:8 7.69078e-05
22 *2538:RESET_B *2463:A 5.42386e-05
23 *2538:RESET_B *2538:CLK 0.000124895
24 *2538:RESET_B *228:8 9.31061e-05
25 *2539:RESET_B *2446:A 0
26 *2539:RESET_B *2448:A 6.74079e-05
27 *2539:RESET_B *2450:A 0.000132623
28 *2539:RESET_B *229:8 4.70477e-05
29 *2540:RESET_B *2539:CLK 9.66021e-05
30 *2540:RESET_B *2539:D 2.30292e-05
31 *2540:RESET_B *2540:CLK 0
32 *2540:RESET_B *229:8 9.56213e-05
33 *2541:RESET_B *2542:CLK 0
34 *2542:RESET_B *2464:A 0.000140852
35 *2542:RESET_B *2543:CLK 0
36 *2542:RESET_B *233:8 4.70393e-05
37 *164:39 *197:8 0.000318091
38 *164:39 *231:8 0.00014168
39 *164:52 *197:8 0.000496278
40 *164:64 *2463:A 8.09021e-06
41 *164:64 *2464:A 0.000193807
42 *164:89 *2461:A 6.5525e-05
43 *164:89 *2509:A 2.42236e-05
44 *164:89 *195:17 0
45 *164:89 *196:8 5.83121e-06
46 *164:89 *228:8 0.00019311
47 *164:91 *2460:A 0
48 *164:91 *173:118 0.000219692
49 *164:91 *195:17 0
50 *164:93 *173:118 0.00035749
51 spine_bot_iw[10] *2538:RESET_B 0
52 spine_bot_iw[23] *2539:RESET_B 0
53 spine_bot_iw[24] *2539:RESET_B 0
54 spine_bot_iw[25] *2539:RESET_B 0.000269726
55 spine_bot_iw[6] *2534:RESET_B 0
56 spine_bot_iw[6] *164:91 0
57 spine_bot_iw[6] *164:93 0
58 spine_bot_iw[7] *164:89 9.17107e-05
59 spine_bot_iw[7] *164:91 7.59627e-05
60 spine_bot_iw[8] *164:89 7.33465e-05
61 *2427:A *2534:RESET_B 4.3767e-05
62 *2534:CLK *2539:RESET_B 5.63018e-05
63 *14:34 *2540:RESET_B 0
64 *22:44 *2539:RESET_B 0
*RES
1 *2367:X *2539:RESET_B 21.1925 
2 *2539:RESET_B *2540:RESET_B 12.3775 
3 *2540:RESET_B *164:39 4.1925 
4 *164:39 *2541:RESET_B 6.91 
5 *164:39 *164:52 6.59 
6 *164:52 *2538:RESET_B 7.6175 
7 *164:52 *164:64 4.185 
8 *164:64 *2543:RESET_B 2 
9 *164:64 *2542:RESET_B 5.6525 
10 *2538:RESET_B *164:89 7.9625 
11 *164:89 *164:91 4.44 
12 *164:91 *164:93 4.185 
13 *164:93 *2534:RESET_B 6.6725 
14 *164:93 *2535:RESET_B 2 
15 *164:91 *2536:RESET_B 2 
16 *164:89 *2537:RESET_B 2 
*END

*D_NET *165 0.000154298
*CONN
*I *2368:A I *D sky130_fd_sc_hd__bufinv_8
*I *2360:Y O *D sky130_fd_sc_hd__inv_2
*CAP
1 *2368:A 3.36697e-05
2 *2360:Y 3.36697e-05
3 *24:68 *2368:A 8.69583e-05
*RES
1 *2360:Y *2368:A 3.995 
*END

*D_NET *166 0.0139202
*CONN
*I *2380:TE_B I *D sky130_fd_sc_hd__ebufn_1
*I *2391:TE_B I *D sky130_fd_sc_hd__ebufn_1
*I *2389:TE_B I *D sky130_fd_sc_hd__ebufn_1
*I *2371:TE_B I *D sky130_fd_sc_hd__ebufn_1
*I *2369:TE_B I *D sky130_fd_sc_hd__ebufn_1
*I *2386:TE_B I *D sky130_fd_sc_hd__ebufn_1
*I *2388:TE_B I *D sky130_fd_sc_hd__ebufn_1
*I *2390:TE_B I *D sky130_fd_sc_hd__ebufn_1
*I *2385:TE_B I *D sky130_fd_sc_hd__ebufn_1
*I *2387:TE_B I *D sky130_fd_sc_hd__ebufn_1
*I *2392:TE_B I *D sky130_fd_sc_hd__ebufn_1
*I *2370:TE_B I *D sky130_fd_sc_hd__ebufn_1
*I *2372:TE_B I *D sky130_fd_sc_hd__ebufn_1
*I *2373:TE_B I *D sky130_fd_sc_hd__ebufn_1
*I *2376:TE_B I *D sky130_fd_sc_hd__ebufn_1
*I *2377:TE_B I *D sky130_fd_sc_hd__ebufn_1
*I *2378:TE_B I *D sky130_fd_sc_hd__ebufn_1
*I *2379:TE_B I *D sky130_fd_sc_hd__ebufn_1
*I *2381:TE_B I *D sky130_fd_sc_hd__ebufn_1
*I *2384:TE_B I *D sky130_fd_sc_hd__ebufn_1
*I *2382:TE_B I *D sky130_fd_sc_hd__ebufn_1
*I *2375:TE_B I *D sky130_fd_sc_hd__ebufn_1
*I *2383:TE_B I *D sky130_fd_sc_hd__ebufn_1
*I *2374:TE_B I *D sky130_fd_sc_hd__ebufn_1
*I *2368:Y O *D sky130_fd_sc_hd__bufinv_8
*CAP
1 *2380:TE_B 0
2 *2391:TE_B 0
3 *2389:TE_B 0
4 *2371:TE_B 0.000198222
5 *2369:TE_B 1.78604e-05
6 *2386:TE_B 0
7 *2388:TE_B 0
8 *2390:TE_B 0.000133784
9 *2385:TE_B 0
10 *2387:TE_B 0
11 *2392:TE_B 0
12 *2370:TE_B 0
13 *2372:TE_B 0
14 *2373:TE_B 0
15 *2376:TE_B 0
16 *2377:TE_B 0
17 *2378:TE_B 0.000159313
18 *2379:TE_B 0
19 *2381:TE_B 0
20 *2384:TE_B 0
21 *2382:TE_B 0.000116528
22 *2375:TE_B 2.08101e-05
23 *2383:TE_B 0.000192061
24 *2374:TE_B 8.51468e-05
25 *2368:Y 0.000144109
26 *166:206 0.00037834
27 *166:204 0.000395384
28 *166:174 0.000319567
29 *166:170 0.000295957
30 *166:83 0.000204334
31 *166:81 0.00021058
32 *166:79 0.000235897
33 *166:77 0.000294058
34 *166:75 0.000150821
35 *166:53 0.000426504
36 *166:38 0.00037456
37 *166:36 0.000204979
38 *166:34 6.22473e-05
39 *166:32 0.000113473
40 *166:30 0.000121731
41 *166:28 0.000197924
42 *166:26 0.000294615
43 *166:24 0.000290436
44 *166:22 0.000141895
45 *166:20 0.000245718
46 *166:16 0.000189772
47 *166:12 0.000285535
48 *166:10 0.000159356
49 *2371:TE_B *2371:A 0.00043044
50 *2371:TE_B *167:163 7.49327e-05
51 *2374:TE_B *167:36 2.92496e-05
52 *2374:TE_B *167:42 8.69583e-05
53 *2375:TE_B *167:42 0
54 *2378:TE_B *167:23 0.000199927
55 *2378:TE_B *167:36 4.43871e-06
56 *2378:TE_B *167:61 1.38481e-05
57 *2382:TE_B *2382:A 4.82919e-05
58 *2383:TE_B *2383:A 0.00013927
59 *2390:TE_B *2386:A 7.66083e-05
60 *2390:TE_B *167:116 0.000313156
61 *166:12 *167:152 2.07184e-05
62 *166:16 *167:152 0.000137578
63 *166:20 *167:144 0.000198155
64 *166:22 *167:144 4.82863e-05
65 *166:24 *167:137 0.000236459
66 *166:24 *167:144 7.66083e-05
67 *166:26 *167:130 0.00035225
68 *166:26 *167:137 7.49327e-05
69 *166:28 *167:94 0.000135764
70 *166:28 *167:101 4.77719e-05
71 *166:28 *167:130 3.74161e-05
72 *166:30 *2698:A 0.000155602
73 *166:30 *167:83 0.00014246
74 *166:30 *167:94 4.18421e-05
75 *166:32 *2698:A 0.000184234
76 *166:32 *167:74 0.000145184
77 *166:32 *167:83 4.60584e-05
78 *166:34 *2698:A 0.000184621
79 *166:34 *167:65 0.000139945
80 *166:34 *167:74 4.46754e-05
81 *166:38 *167:36 0.000129047
82 *166:38 *167:61 8.53113e-06
83 *166:53 *2383:A 4.43603e-05
84 *166:53 *167:42 0.000232668
85 *166:75 *167:61 4.08568e-05
86 *166:75 *167:191 0.000185583
87 *166:77 *167:191 4.66108e-05
88 *166:79 *167:191 3.66286e-05
89 *166:79 *167:193 0.000236355
90 *166:81 *167:193 7.66083e-05
91 *166:81 *167:195 0.000236355
92 *166:83 *2384:A 4.99619e-05
93 *166:83 *167:195 7.40446e-05
94 *166:174 *2386:A 0.00031343
95 *166:204 *167:152 3.66286e-05
96 *166:204 *167:154 0.000238919
97 *166:204 *167:163 4.31275e-05
98 *166:206 *167:163 0.000419398
99 spine_bot_ow[15] *2374:TE_B 0
100 spine_bot_ow[17] *166:75 0
101 spine_bot_ow[18] *166:75 8.66976e-06
102 spine_bot_ow[19] *2378:TE_B 4.24562e-05
103 spine_bot_ow[20] *2378:TE_B 9.58678e-06
104 spine_bot_ow[22] *2382:TE_B 0
105 spine_bot_ow[3] *166:16 2.32724e-05
106 spine_bot_ow[4] *166:170 0
107 spine_bot_ow[6] *166:170 0
108 *2558:DIODE *166:75 0
109 *5:35 *166:75 1.91597e-05
110 *5:35 *166:83 4.35432e-05
111 *5:35 *166:204 1.19928e-05
112 *24:68 *166:10 9.02259e-05
113 *86:22 *2378:TE_B 0
114 *89:22 *166:75 1.82476e-05
115 *90:8 *2378:TE_B 3.64998e-06
116 *90:24 *2378:TE_B 0.000108322
117 *92:26 *2378:TE_B 2.8867e-05
118 *94:22 *2382:TE_B 0
119 *95:22 *2382:TE_B 0.000184423
120 *99:8 *2369:TE_B 2.75229e-05
121 *99:8 *166:20 1.12578e-05
122 *99:24 *166:10 7.63204e-05
123 *99:24 *166:12 3.05373e-05
124 *99:24 *166:16 4.5783e-05
125 *100:10 *166:10 5.21545e-05
126 *100:10 *166:12 9.3062e-06
127 *100:10 *166:170 4.70343e-05
128 *102:24 *166:170 0
129 *104:6 *2390:TE_B 4.95182e-05
*RES
1 *2368:Y *166:10 6.72 
2 *166:10 *166:12 0.615 
3 *166:12 *166:16 3.635 
4 *166:16 *166:20 2.535 
5 *166:20 *166:22 0.45 
6 *166:22 *166:24 2.865 
7 *166:24 *166:26 3.9 
8 *166:26 *166:28 2.865 
9 *166:28 *166:30 2.865 
10 *166:30 *166:32 2.865 
11 *166:32 *166:34 2.865 
12 *166:34 *166:36 2 
13 *166:36 *166:38 1.635 
14 *166:38 *2374:TE_B 5.355 
15 *166:38 *166:53 5.9 
16 *166:53 *2383:TE_B 4.825 
17 *166:53 *2375:TE_B 1.96 
18 *166:36 *166:75 4.94 
19 *166:75 *166:77 0.45 
20 *166:77 *166:79 2.52 
21 *166:79 *166:81 2.865 
22 *166:81 *166:83 1.83 
23 *166:83 *2382:TE_B 8.195 
24 *166:83 *2384:TE_B 1.6 
25 *166:81 *2381:TE_B 1.6 
26 *166:79 *2379:TE_B 1.6 
27 *166:77 *2378:TE_B 9.575 
28 *166:75 *2377:TE_B 1.6 
29 *166:34 *2376:TE_B 1.6 
30 *166:32 *2373:TE_B 1.6 
31 *166:30 *2372:TE_B 1.6 
32 *166:28 *2370:TE_B 1.6 
33 *166:26 *2392:TE_B 1.6 
34 *166:24 *2387:TE_B 1.6 
35 *166:22 *2385:TE_B 1.6 
36 *166:20 *166:170 5.89 
37 *166:170 *166:174 3.915 
38 *166:174 *2390:TE_B 5.155 
39 *166:174 *2388:TE_B 1.6 
40 *166:170 *2386:TE_B 1.6 
41 *166:16 *2369:TE_B 2.05 
42 *166:12 *166:204 5.915 
43 *166:204 *166:206 3.9 
44 *166:206 *2371:TE_B 6.19 
45 *166:206 *2389:TE_B 1.6 
46 *166:204 *2391:TE_B 1.6 
47 *166:10 *2380:TE_B 3.6 
*END

*D_NET *167 0.0147294
*CONN
*I *2378:A I *D sky130_fd_sc_hd__ebufn_1
*I *2377:A I *D sky130_fd_sc_hd__ebufn_1
*I *2379:A I *D sky130_fd_sc_hd__ebufn_1
*I *2381:A I *D sky130_fd_sc_hd__ebufn_1
*I *2384:A I *D sky130_fd_sc_hd__ebufn_1
*I *2369:A I *D sky130_fd_sc_hd__ebufn_1
*I *2380:A I *D sky130_fd_sc_hd__ebufn_1
*I *2389:A I *D sky130_fd_sc_hd__ebufn_1
*I *2371:A I *D sky130_fd_sc_hd__ebufn_1
*I *2391:A I *D sky130_fd_sc_hd__ebufn_1
*I *2385:A I *D sky130_fd_sc_hd__ebufn_1
*I *2387:A I *D sky130_fd_sc_hd__ebufn_1
*I *2386:A I *D sky130_fd_sc_hd__ebufn_1
*I *2388:A I *D sky130_fd_sc_hd__ebufn_1
*I *2390:A I *D sky130_fd_sc_hd__ebufn_1
*I *2392:A I *D sky130_fd_sc_hd__ebufn_1
*I *2370:A I *D sky130_fd_sc_hd__ebufn_1
*I *2372:A I *D sky130_fd_sc_hd__ebufn_1
*I *2373:A I *D sky130_fd_sc_hd__ebufn_1
*I *2374:A I *D sky130_fd_sc_hd__ebufn_1
*I *2375:A I *D sky130_fd_sc_hd__ebufn_1
*I *2383:A I *D sky130_fd_sc_hd__ebufn_1
*I *2376:A I *D sky130_fd_sc_hd__ebufn_1
*I *2382:A I *D sky130_fd_sc_hd__ebufn_1
*I *2393:LO O *D sky130_fd_sc_hd__conb_1
*CAP
1 *2378:A 0
2 *2377:A 0
3 *2379:A 0
4 *2381:A 0
5 *2384:A 5.81042e-06
6 *2369:A 0
7 *2380:A 0
8 *2389:A 0
9 *2371:A 8.8868e-05
10 *2391:A 0
11 *2385:A 0
12 *2387:A 0
13 *2386:A 0.000142275
14 *2388:A 0
15 *2390:A 3.19447e-05
16 *2392:A 0
17 *2370:A 2.21004e-05
18 *2372:A 2.21004e-05
19 *2373:A 2.21004e-05
20 *2374:A 0
21 *2375:A 0
22 *2383:A 0.000132296
23 *2376:A 0
24 *2382:A 0.000157982
25 *2393:LO 0
26 *167:195 6.08031e-05
27 *167:193 0.000103985
28 *167:191 0.000132396
29 *167:163 0.000214164
30 *167:154 0.000166134
31 *167:152 0.000110586
32 *167:144 0.000189609
33 *167:137 0.00025057
34 *167:130 0.000286468
35 *167:116 0.000288721
36 *167:107 0.00032256
37 *167:101 0.000319352
38 *167:94 0.000182777
39 *167:83 0.000337222
40 *167:74 0.000324848
41 *167:65 0.000318439
42 *167:61 0.000245035
43 *167:42 0.000259212
44 *167:36 0.000231578
45 *167:32 0.000138704
46 *167:23 0.000109659
47 *167:17 0.000201133
48 *167:4 0.000267225
49 *2382:A *2698:A 0.000349686
50 *167:17 *2698:A 0.000149977
51 *167:23 *2698:A 0.000312124
52 *167:32 *2698:A 2.01504e-05
53 *167:65 *2698:A 6.07575e-06
54 *167:107 *2698:A 0
55 spine_bot_ow[15] *167:36 0
56 spine_bot_ow[19] *167:61 1.92979e-05
57 spine_bot_ow[19] *167:191 2.08556e-05
58 *2371:TE_B *2371:A 0.00043044
59 *2371:TE_B *167:163 7.49327e-05
60 *2374:TE_B *167:36 2.92496e-05
61 *2374:TE_B *167:42 8.69583e-05
62 *2375:TE_B *167:42 0
63 *2378:TE_B *167:23 0.000199927
64 *2378:TE_B *167:36 4.43871e-06
65 *2378:TE_B *167:61 1.38481e-05
66 *2382:TE_B *2382:A 4.82919e-05
67 *2383:TE_B *2383:A 0.00013927
68 *2390:TE_B *2386:A 7.66083e-05
69 *2390:TE_B *167:116 0.000313156
70 *2680:A *167:107 0
71 *5:35 *2371:A 0.000504484
72 *5:35 *2384:A 4.99619e-05
73 *5:35 *167:152 2.75145e-05
74 *5:35 *167:154 0.000134314
75 *5:35 *167:163 0.000570832
76 *5:35 *167:191 0.000122325
77 *5:35 *167:193 0.000312964
78 *5:35 *167:195 0.0003104
79 *82:8 *167:94 4.82863e-05
80 *86:22 *167:36 0
81 *90:8 *167:23 8.70076e-06
82 *90:8 *167:32 4.6368e-06
83 *90:24 *167:191 0.000137571
84 *99:8 *167:144 2.75145e-05
85 *100:10 *167:152 8.40439e-05
86 *102:8 *2386:A 2.86975e-05
87 *166:12 *167:152 2.07184e-05
88 *166:16 *167:152 0.000137578
89 *166:20 *167:144 0.000198155
90 *166:22 *167:144 4.82863e-05
91 *166:24 *167:137 0.000236459
92 *166:24 *167:144 7.66083e-05
93 *166:26 *167:130 0.00035225
94 *166:26 *167:137 7.49327e-05
95 *166:28 *167:94 0.000135764
96 *166:28 *167:101 4.77719e-05
97 *166:28 *167:130 3.74161e-05
98 *166:30 *167:83 0.00014246
99 *166:30 *167:94 4.18421e-05
100 *166:32 *167:74 0.000145184
101 *166:32 *167:83 4.60584e-05
102 *166:34 *167:65 0.000139945
103 *166:34 *167:74 4.46754e-05
104 *166:38 *167:36 0.000129047
105 *166:38 *167:61 8.53113e-06
106 *166:53 *2383:A 4.43603e-05
107 *166:53 *167:42 0.000232668
108 *166:75 *167:61 4.08568e-05
109 *166:75 *167:191 0.000185583
110 *166:77 *167:191 4.66108e-05
111 *166:79 *167:191 3.66286e-05
112 *166:79 *167:193 0.000236355
113 *166:81 *167:193 7.66083e-05
114 *166:81 *167:195 0.000236355
115 *166:83 *2384:A 4.99619e-05
116 *166:83 *167:195 7.40446e-05
117 *166:174 *2386:A 0.00031343
118 *166:204 *167:152 3.66286e-05
119 *166:204 *167:154 0.000238919
120 *166:204 *167:163 4.31275e-05
121 *166:206 *167:163 0.000419398
*RES
1 *2393:LO *167:4 1.6 
2 *167:4 *2382:A 5.53 
3 *167:4 *167:17 2.52 
4 *167:17 *167:23 3.585 
5 *167:23 *2376:A 1.6 
6 *167:23 *167:32 2.45 
7 *167:32 *167:36 3.89 
8 *167:36 *167:42 3.33 
9 *167:42 *2383:A 4.465 
10 *167:42 *2375:A 1.6 
11 *167:36 *2374:A 1.6 
12 *167:32 *167:61 0.615 
13 *167:61 *167:65 4.52 
14 *167:65 *2373:A 1.96 
15 *167:65 *167:74 2.865 
16 *167:74 *2372:A 1.96 
17 *167:74 *167:83 2.865 
18 *167:83 *2370:A 1.96 
19 *167:83 *167:94 3.225 
20 *167:94 *2392:A 1.6 
21 *167:94 *167:101 0.45 
22 *167:101 *167:107 6.145 
23 *167:107 *2390:A 2.05 
24 *167:107 *167:116 3.21 
25 *167:116 *2388:A 1.6 
26 *167:116 *2386:A 5.155 
27 *167:101 *167:130 3.555 
28 *167:130 *2387:A 1.6 
29 *167:130 *167:137 2.865 
30 *167:137 *2385:A 1.6 
31 *167:137 *167:144 2.865 
32 *167:144 *167:152 6.34 
33 *167:152 *167:154 2.175 
34 *167:154 *2391:A 1.6 
35 *167:154 *167:163 5.64 
36 *167:163 *2371:A 6.19 
37 *167:163 *2389:A 1.6 
38 *167:152 *2380:A 1.6 
39 *167:144 *2369:A 1.6 
40 *167:61 *167:191 5.03 
41 *167:191 *167:193 2.865 
42 *167:193 *167:195 2.865 
43 *167:195 *2384:A 2.05 
44 *167:195 *2381:A 1.6 
45 *167:193 *2379:A 1.6 
46 *167:191 *2377:A 1.6 
47 *167:17 *2378:A 1.6 
*END

*D_NET *169 0.000916949
*CONN
*I *2394:A I *D sky130_fd_sc_hd__bufinv_8
*I *2361:Y O *D sky130_fd_sc_hd__inv_2
*CAP
1 *2394:A 0.000302107
2 *2361:Y 0.000302107
3 *2394:A *203:10 0
4 *2394:A *258:6 0.000312735
*RES
1 *2361:Y *2394:A 11.7 
*END

*D_NET *170 0.02128
*CONN
*I *2406:TE_B I *D sky130_fd_sc_hd__ebufn_1
*I *2411:TE_B I *D sky130_fd_sc_hd__ebufn_1
*I *2412:TE_B I *D sky130_fd_sc_hd__ebufn_1
*I *2413:TE_B I *D sky130_fd_sc_hd__ebufn_1
*I *2417:TE_B I *D sky130_fd_sc_hd__ebufn_1
*I *2418:TE_B I *D sky130_fd_sc_hd__ebufn_1
*I *2396:TE_B I *D sky130_fd_sc_hd__ebufn_1
*I *2415:TE_B I *D sky130_fd_sc_hd__ebufn_1
*I *2397:TE_B I *D sky130_fd_sc_hd__ebufn_1
*I *2398:TE_B I *D sky130_fd_sc_hd__ebufn_1
*I *2402:TE_B I *D sky130_fd_sc_hd__ebufn_1
*I *2403:TE_B I *D sky130_fd_sc_hd__ebufn_1
*I *2409:TE_B I *D sky130_fd_sc_hd__ebufn_1
*I *2400:TE_B I *D sky130_fd_sc_hd__ebufn_1
*I *2401:TE_B I *D sky130_fd_sc_hd__ebufn_1
*I *2404:TE_B I *D sky130_fd_sc_hd__ebufn_1
*I *2405:TE_B I *D sky130_fd_sc_hd__ebufn_1
*I *2410:TE_B I *D sky130_fd_sc_hd__ebufn_1
*I *2407:TE_B I *D sky130_fd_sc_hd__ebufn_1
*I *2408:TE_B I *D sky130_fd_sc_hd__ebufn_1
*I *2416:TE_B I *D sky130_fd_sc_hd__ebufn_1
*I *2399:TE_B I *D sky130_fd_sc_hd__ebufn_1
*I *2414:TE_B I *D sky130_fd_sc_hd__ebufn_1
*I *2395:TE_B I *D sky130_fd_sc_hd__ebufn_1
*I *2394:Y O *D sky130_fd_sc_hd__bufinv_8
*CAP
1 *2406:TE_B 0.000167876
2 *2411:TE_B 0
3 *2412:TE_B 0
4 *2413:TE_B 0
5 *2417:TE_B 0.00013501
6 *2418:TE_B 0
7 *2396:TE_B 0.000180655
8 *2415:TE_B 0
9 *2397:TE_B 0
10 *2398:TE_B 0
11 *2402:TE_B 2.08101e-05
12 *2403:TE_B 7.78529e-05
13 *2409:TE_B 0.000268777
14 *2400:TE_B 0
15 *2401:TE_B 0.000116166
16 *2404:TE_B 9.99067e-05
17 *2405:TE_B 0
18 *2410:TE_B 0.000106562
19 *2407:TE_B 0.000123335
20 *2408:TE_B 6.64332e-05
21 *2416:TE_B 0
22 *2399:TE_B 9.95392e-05
23 *2414:TE_B 5.6973e-05
24 *2395:TE_B 0
25 *2394:Y 0.000316169
26 *170:216 0.000186107
27 *170:203 0.000335444
28 *170:137 0.000116166
29 *170:135 0.000300837
30 *170:121 0.000185276
31 *170:112 0.000191931
32 *170:99 0.000210301
33 *170:88 0.00039741
34 *170:82 0.00036182
35 *170:78 0.000213978
36 *170:76 0.000330334
37 *170:72 0.000379576
38 *170:70 0.000594233
39 *170:64 0.000473805
40 *170:62 0.00049744
41 *170:48 0.000304072
42 *170:38 0.00059828
43 *170:29 0.000126875
44 *170:27 0.000253373
45 *170:25 0.000267493
46 *170:23 0.000142887
47 *170:19 0.000286369
48 *170:10 0.000375796
49 *2396:TE_B *2396:A 0.000350574
50 *2396:TE_B *2689:A1 0.000195859
51 *2399:TE_B *171:139 0.000616833
52 *2399:TE_B *171:156 7.66083e-05
53 *2399:TE_B *258:6 0.000693441
54 *2401:TE_B *2401:A 8.40213e-05
55 *2401:TE_B *2692:A 0.000119756
56 *2401:TE_B *171:51 0.000194694
57 *2401:TE_B *171:80 8.49205e-05
58 *2403:TE_B *309:16 0.000230355
59 *2404:TE_B *2694:A 4.21973e-05
60 *2404:TE_B *171:23 0.000226568
61 *2406:TE_B *2395:A 1.07797e-05
62 *2406:TE_B *2406:A 0.00017944
63 *2406:TE_B *2684:A1 2.75229e-05
64 *2407:TE_B *2657:A0 0.000179015
65 *2407:TE_B *171:15 0.000119756
66 *2407:TE_B *171:36 2.92496e-05
67 *2407:TE_B *238:141 0.000121437
68 *2408:TE_B *2408:A 0.000119756
69 *2409:TE_B *2403:A 0
70 *2409:TE_B *2658:A1 0
71 *2409:TE_B *171:80 1.07797e-05
72 *2409:TE_B *309:16 0.000280719
73 *2410:TE_B *2410:A 0.00015806
74 *2410:TE_B *2694:A 4.60584e-05
75 *2414:TE_B *171:167 0.000163199
76 *2414:TE_B *306:20 4.66108e-05
77 *2417:TE_B *2417:A 0.00030327
78 *2417:TE_B *171:193 8.69583e-05
79 *170:10 *2683:A1 3.72916e-05
80 *170:10 *238:224 6.44134e-05
81 *170:10 *238:248 2.97004e-06
82 *170:19 *2395:A 9.24049e-05
83 *170:19 *238:248 5.12017e-06
84 *170:23 *171:228 4.66108e-05
85 *170:23 *257:6 4.21973e-05
86 *170:25 *171:212 8.49205e-05
87 *170:25 *171:219 3.74161e-05
88 *170:25 *171:228 7.49327e-05
89 *170:27 *171:212 0.000421967
90 *170:29 *171:167 8.40269e-05
91 *170:29 *171:212 7.49327e-05
92 *170:48 *2687:A1 8.65905e-05
93 *170:48 *2687:S 4.99619e-05
94 *170:48 *171:156 0.000422743
95 *170:48 *258:6 0.000481556
96 *170:48 *306:20 5.51245e-05
97 *170:62 *2653:A0 0
98 *170:62 *171:171 0.00016475
99 *170:62 *238:45 0
100 *170:62 *304:32 2.46089e-05
101 *170:72 *2397:A 0.000239901
102 *170:76 *2397:A 3.90495e-05
103 *170:76 *2619:A1 8.65905e-05
104 *170:76 *171:106 0.000225085
105 *170:78 *171:93 4.23703e-05
106 *170:78 *171:106 3.44499e-05
107 *170:82 *171:80 7.42123e-05
108 *170:82 *171:93 4.16262e-05
109 *170:88 *2408:A 3.57349e-05
110 *170:88 *171:47 0.000162566
111 *170:99 *2657:A0 0.000352775
112 *170:99 *171:36 0.000340587
113 *170:99 *171:47 2.07184e-05
114 *170:121 *2410:A 3.57349e-05
115 *170:121 *171:23 8.8266e-05
116 *170:121 *171:25 8.65961e-05
117 *170:135 *2657:A1 0
118 *170:135 *171:47 1.1561e-05
119 *170:135 *171:80 1.52184e-05
120 *170:203 *171:171 5.53249e-06
121 *170:203 *171:182 8.15598e-05
122 *170:216 *2396:A 8.49205e-05
123 *170:216 *171:193 2.42171e-05
124 spine_top_ow[16] *2403:TE_B 2.49909e-05
125 spine_top_ow[16] *2409:TE_B 5.83121e-06
126 spine_top_ow[1] *2406:TE_B 0.000109412
127 spine_top_ow[21] *2407:TE_B 0
128 spine_top_ow[6] *170:62 0.000320516
129 spine_top_ow[8] *170:62 0
130 *2501:A *170:70 2.96334e-05
131 *2570:DIODE *2406:TE_B 4.43871e-06
132 *2575:DIODE *170:48 0.000160658
133 *2575:DIODE *170:62 7.23602e-05
134 *2586:DIODE *2409:TE_B 0.000123319
135 *2617:A *170:76 0.0001249
136 *2637:A *170:70 0.000124007
137 *2640:A *170:82 0.000122701
138 *2650:A *2417:TE_B 4.25093e-05
139 *2650:A *170:216 8.57024e-05
140 *2681:A *170:10 6.44307e-05
141 *2681:A *170:19 3.46842e-05
142 *24:44 *2401:TE_B 2.45351e-05
143 *24:44 *170:70 0.0003372
144 *24:44 *170:72 4.21973e-05
145 *24:44 *170:76 3.66286e-05
146 *24:44 *170:78 0.000186388
147 *24:44 *170:82 0.000424625
148 *25:36 *2408:TE_B 0.000109839
149 *25:36 *170:88 6.71882e-05
150 *138:8 *2396:TE_B 2.65814e-06
151 *142:22 *2409:TE_B 0
152 *143:10 *2409:TE_B 0
153 *147:19 *2406:TE_B 2.9664e-05
154 *147:19 *170:19 4.28483e-05
155 *148:8 *2404:TE_B 7.35729e-05
156 *148:21 *2403:TE_B 0.000204463
157 *148:21 *170:88 0
158 *159:10 *170:62 0
159 *159:10 *170:203 0
*RES
1 *2394:Y *170:10 9.39 
2 *170:10 *2395:TE_B 3.6 
3 *170:10 *170:19 2.145 
4 *170:19 *170:23 3.14 
5 *170:23 *170:25 1.83 
6 *170:25 *170:27 3.9 
7 *170:27 *170:29 1.485 
8 *170:29 *2414:TE_B 3.085 
9 *170:29 *170:38 2 
10 *170:38 *170:48 9.635 
11 *170:48 *2399:TE_B 7.915 
12 *170:48 *2416:TE_B 1.6 
13 *170:38 *170:62 8.265 
14 *170:62 *170:64 2 
15 *170:64 *170:70 8.415 
16 *170:70 *170:72 2.865 
17 *170:72 *170:76 5.64 
18 *170:76 *170:78 1.83 
19 *170:78 *170:82 5.9 
20 *170:82 *170:88 6.815 
21 *170:88 *2408:TE_B 3.43 
22 *170:88 *170:99 6.185 
23 *170:99 *2407:TE_B 6.885 
24 *170:99 *170:112 2 
25 *170:112 *2410:TE_B 3.775 
26 *170:112 *170:121 1.83 
27 *170:121 *2405:TE_B 1.6 
28 *170:121 *2404:TE_B 4.465 
29 *170:82 *170:135 0.615 
30 *170:135 *170:137 2 
31 *170:137 *2401:TE_B 4.81 
32 *170:137 *2400:TE_B 1.6 
33 *170:135 *2409:TE_B 9.165 
34 *170:78 *2403:TE_B 8.45 
35 *170:76 *2402:TE_B 1.96 
36 *170:72 *2398:TE_B 1.6 
37 *170:70 *2397:TE_B 1.6 
38 *170:64 *2415:TE_B 1.6 
39 *170:62 *170:203 3.89 
40 *170:203 *2396:TE_B 5.86 
41 *170:203 *170:216 1.5 
42 *170:216 *2418:TE_B 1.6 
43 *170:216 *2417:TE_B 5.155 
44 *170:27 *2413:TE_B 1.6 
45 *170:25 *2412:TE_B 1.6 
46 *170:23 *2411:TE_B 1.6 
47 *170:19 *2406:TE_B 8.235 
*END

*D_NET *171 0.019984
*CONN
*I *2406:A I *D sky130_fd_sc_hd__ebufn_1
*I *2395:A I *D sky130_fd_sc_hd__ebufn_1
*I *2411:A I *D sky130_fd_sc_hd__ebufn_1
*I *2412:A I *D sky130_fd_sc_hd__ebufn_1
*I *2413:A I *D sky130_fd_sc_hd__ebufn_1
*I *2417:A I *D sky130_fd_sc_hd__ebufn_1
*I *2418:A I *D sky130_fd_sc_hd__ebufn_1
*I *2396:A I *D sky130_fd_sc_hd__ebufn_1
*I *2415:A I *D sky130_fd_sc_hd__ebufn_1
*I *2414:A I *D sky130_fd_sc_hd__ebufn_1
*I *2416:A I *D sky130_fd_sc_hd__ebufn_1
*I *2399:A I *D sky130_fd_sc_hd__ebufn_1
*I *2404:A I *D sky130_fd_sc_hd__ebufn_1
*I *2405:A I *D sky130_fd_sc_hd__ebufn_1
*I *2397:A I *D sky130_fd_sc_hd__ebufn_1
*I *2398:A I *D sky130_fd_sc_hd__ebufn_1
*I *2402:A I *D sky130_fd_sc_hd__ebufn_1
*I *2403:A I *D sky130_fd_sc_hd__ebufn_1
*I *2400:A I *D sky130_fd_sc_hd__ebufn_1
*I *2409:A I *D sky130_fd_sc_hd__ebufn_1
*I *2401:A I *D sky130_fd_sc_hd__ebufn_1
*I *2408:A I *D sky130_fd_sc_hd__ebufn_1
*I *2410:A I *D sky130_fd_sc_hd__ebufn_1
*I *2407:A I *D sky130_fd_sc_hd__ebufn_1
*I *2419:LO O *D sky130_fd_sc_hd__conb_1
*CAP
1 *2406:A 0.000136617
2 *2395:A 5.28918e-05
3 *2411:A 0
4 *2412:A 0
5 *2413:A 0
6 *2417:A 0.000145314
7 *2418:A 0
8 *2396:A 0.000116552
9 *2415:A 0
10 *2414:A 1.30746e-05
11 *2416:A 0
12 *2399:A 0
13 *2404:A 0
14 *2405:A 0
15 *2397:A 3.95906e-05
16 *2398:A 0
17 *2402:A 1.41956e-05
18 *2403:A 5.18459e-05
19 *2400:A 0
20 *2409:A 6.82158e-05
21 *2401:A 3.45423e-05
22 *2408:A 8.23645e-05
23 *2410:A 4.36221e-05
24 *2407:A 0
25 *2419:LO 4.37526e-05
26 *171:228 0.000215078
27 *171:219 3.36951e-05
28 *171:212 0.000114685
29 *171:193 0.000213918
30 *171:182 0.000281129
31 *171:171 0.000347261
32 *171:167 0.000429011
33 *171:156 0.000383456
34 *171:139 0.000574434
35 *171:132 0.000634314
36 *171:106 0.000180004
37 *171:93 0.000303381
38 *171:80 0.000396241
39 *171:51 0.000151738
40 *171:49 4.89803e-05
41 *171:47 0.000371132
42 *171:36 0.000434039
43 *171:25 0.000231329
44 *171:23 5.35028e-05
45 *171:21 0.000126068
46 *171:15 0.000744633
47 *171:6 0.000345181
48 *2395:A *238:248 0.000185398
49 *2401:A *2692:A 4.60584e-05
50 *2406:A *2684:A1 2.75229e-05
51 *2406:A *238:248 0.000301191
52 *2406:A *238:267 3.25831e-05
53 *2409:A *2658:A1 4.76659e-05
54 *2409:A *2665:A 0.000177897
55 *2409:A *304:32 4.9968e-05
56 *2410:A *2694:A 0.000195476
57 *2414:A *257:6 1.91597e-05
58 *2414:A *306:20 4.82919e-05
59 *171:6 *2626:S 0.00012657
60 *171:15 *2626:S 2.05056e-05
61 *171:15 *238:141 0.000273835
62 *171:23 *2694:A 0.000303176
63 *171:25 *2694:A 7.66083e-05
64 *171:47 *2657:A0 8.26614e-05
65 *171:47 *2658:A1 4.19967e-05
66 *171:47 *2665:A 0
67 *171:80 *2658:A1 1.65192e-05
68 *171:132 *2622:A1 0.000162311
69 *171:132 *238:141 0.000151672
70 *171:132 *258:6 4.85494e-05
71 *171:139 *258:6 4.60584e-05
72 *171:156 *2653:A0 9.69431e-05
73 *171:156 *306:20 0.00013994
74 *171:167 *257:6 0.000272973
75 *171:167 *306:20 1.46744e-05
76 *171:171 *2652:A0 0.00035338
77 *171:171 *2652:S 0
78 *171:212 *257:6 0.000570056
79 *171:219 *257:6 4.82919e-05
80 *171:228 *257:6 0.000122325
81 spine_top_ow[6] *171:171 0.000327711
82 spine_top_ow[8] *171:156 5.05521e-05
83 *2396:TE_B *2396:A 0.000350574
84 *2399:TE_B *171:139 0.000616833
85 *2399:TE_B *171:156 7.66083e-05
86 *2401:TE_B *2401:A 8.40213e-05
87 *2401:TE_B *171:51 0.000194694
88 *2401:TE_B *171:80 8.49205e-05
89 *2404:TE_B *171:23 0.000226568
90 *2406:TE_B *2395:A 1.07797e-05
91 *2406:TE_B *2406:A 0.00017944
92 *2407:TE_B *171:15 0.000119756
93 *2407:TE_B *171:36 2.92496e-05
94 *2408:TE_B *2408:A 0.000119756
95 *2409:TE_B *2403:A 0
96 *2409:TE_B *171:80 1.07797e-05
97 *2410:TE_B *2410:A 0.00015806
98 *2414:TE_B *171:167 0.000163199
99 *2417:TE_B *2417:A 0.00030327
100 *2417:TE_B *171:193 8.69583e-05
101 *2575:DIODE *171:171 5.16418e-05
102 *2576:DIODE *2396:A 4.82863e-05
103 *2605:A *171:21 7.44453e-05
104 *2605:A *171:132 8.65961e-05
105 *2617:A *171:106 0.0001249
106 *2640:A *171:80 7.05395e-05
107 *2650:A *171:171 4.18603e-06
108 *2650:A *171:182 5.12855e-05
109 *24:44 *2397:A 0.00031651
110 *24:44 *2401:A 9.45943e-05
111 *24:44 *171:51 0.000104537
112 *24:44 *171:106 0.000467074
113 *137:10 *2396:A 3.72916e-05
114 *142:22 *2403:A 0.000116165
115 *142:22 *171:80 8.696e-05
116 *143:10 *2409:A 1.31735e-05
117 *148:21 *2403:A 7.63282e-05
118 *149:24 *171:15 8.8266e-05
119 *159:19 *2396:A 7.44125e-05
120 *161:6 *2417:A 5.2397e-05
121 *170:19 *2395:A 9.24049e-05
122 *170:23 *171:228 4.66108e-05
123 *170:25 *171:212 8.49205e-05
124 *170:25 *171:219 3.74161e-05
125 *170:25 *171:228 7.49327e-05
126 *170:27 *171:212 0.000421967
127 *170:29 *171:167 8.40269e-05
128 *170:29 *171:212 7.49327e-05
129 *170:48 *171:156 0.000422743
130 *170:62 *171:171 0.00016475
131 *170:72 *2397:A 0.000239901
132 *170:76 *2397:A 3.90495e-05
133 *170:76 *171:106 0.000225085
134 *170:78 *171:93 4.23703e-05
135 *170:78 *171:106 3.44499e-05
136 *170:82 *171:80 7.42123e-05
137 *170:82 *171:93 4.16262e-05
138 *170:88 *2408:A 3.57349e-05
139 *170:88 *171:47 0.000162566
140 *170:99 *171:36 0.000340587
141 *170:99 *171:47 2.07184e-05
142 *170:121 *2410:A 3.57349e-05
143 *170:121 *171:23 8.8266e-05
144 *170:121 *171:25 8.65961e-05
145 *170:135 *171:47 1.1561e-05
146 *170:135 *171:80 1.52184e-05
147 *170:203 *171:171 5.53249e-06
148 *170:203 *171:182 8.15598e-05
149 *170:216 *2396:A 8.49205e-05
150 *170:216 *171:193 2.42171e-05
*RES
1 *2419:LO *171:6 2.74 
2 *171:6 *2407:A 1.6 
3 *171:6 *171:15 5.985 
4 *171:15 *171:21 5.635 
5 *171:21 *171:23 2.865 
6 *171:23 *171:25 0.795 
7 *171:25 *2410:A 3.43 
8 *171:25 *171:36 6.185 
9 *171:36 *2408:A 5.085 
10 *171:36 *171:47 4.185 
11 *171:47 *171:49 2 
12 *171:49 *171:51 1.83 
13 *171:51 *2401:A 3.085 
14 *171:51 *2409:A 7.745 
15 *171:49 *2400:A 1.6 
16 *171:47 *171:80 6.17 
17 *171:80 *2403:A 7.235 
18 *171:80 *171:93 2.175 
19 *171:93 *2402:A 1.96 
20 *171:93 *171:106 5.745 
21 *171:106 *2398:A 1.6 
22 *171:106 *2397:A 4.465 
23 *171:23 *2405:A 1.6 
24 *171:21 *2404:A 1.6 
25 *171:15 *171:132 6.675 
26 *171:132 *2399:A 1.6 
27 *171:132 *171:139 6.315 
28 *171:139 *2416:A 1.6 
29 *171:139 *171:156 11.035 
30 *171:156 *2414:A 2.05 
31 *171:156 *171:167 2.88 
32 *171:167 *171:171 10.01 
33 *171:171 *2415:A 3.6 
34 *171:171 *171:182 4.145 
35 *171:182 *2396:A 5.5 
36 *171:182 *171:193 1.5 
37 *171:193 *2418:A 1.6 
38 *171:193 *2417:A 5.155 
39 *171:167 *2413:A 1.6 
40 *171:167 *171:212 5.28 
41 *171:212 *2412:A 1.6 
42 *171:212 *171:219 0.45 
43 *171:219 *2411:A 1.6 
44 *171:219 *171:228 3.14 
45 *171:228 *2395:A 5.745 
46 *171:228 *2406:A 7.98 
*END

*D_NET *173 0.0180029
*CONN
*I *2445:B I *D sky130_fd_sc_hd__and2_2
*I *2421:B I *D sky130_fd_sc_hd__and2_2
*I *2429:B I *D sky130_fd_sc_hd__and2_2
*I *2431:B I *D sky130_fd_sc_hd__and2_2
*I *2435:B I *D sky130_fd_sc_hd__and2_2
*I *2433:B I *D sky130_fd_sc_hd__and2_2
*I *2437:B I *D sky130_fd_sc_hd__and2_2
*I *2427:B I *D sky130_fd_sc_hd__and2_2
*I *2420:A I *D sky130_fd_sc_hd__buf_8
*I *2425:B I *D sky130_fd_sc_hd__and2_2
*I *2423:B I *D sky130_fd_sc_hd__and2_2
*I *2439:B I *D sky130_fd_sc_hd__and2_2
*I *2441:B I *D sky130_fd_sc_hd__and2_2
*I *2443:B I *D sky130_fd_sc_hd__and2_2
*I *2447:B I *D sky130_fd_sc_hd__and2_2
*I *2449:B I *D sky130_fd_sc_hd__and2_2
*I *2455:B I *D sky130_fd_sc_hd__and2_2
*I *2451:B I *D sky130_fd_sc_hd__and2_2
*I *2453:B I *D sky130_fd_sc_hd__and2_2
*I *2360:A I *D sky130_fd_sc_hd__inv_2
*I *2545:X O *D sky130_fd_sc_hd__buf_8
*CAP
1 *2445:B 0
2 *2421:B 5.73689e-05
3 *2429:B 0
4 *2431:B 0
5 *2435:B 0.000139348
6 *2433:B 0
7 *2437:B 0.000323888
8 *2427:B 0
9 *2420:A 0.00025122
10 *2425:B 0.000151357
11 *2423:B 0
12 *2439:B 1.10502e-05
13 *2441:B 1.04051e-05
14 *2443:B 2.08101e-05
15 *2447:B 0
16 *2449:B 2.08101e-05
17 *2455:B 0
18 *2451:B 6.66554e-05
19 *2453:B 0
20 *2360:A 8.02533e-05
21 *2545:X 0
22 *173:182 0.00023889
23 *173:165 0.000600747
24 *173:163 0.000300579
25 *173:161 0.000295516
26 *173:148 0.00093602
27 *173:124 0.000561293
28 *173:120 0.001057
29 *173:118 0.000447672
30 *173:107 0.000780419
31 *173:88 0.000654048
32 *173:79 0.000239404
33 *173:70 0.000306017
34 *173:66 0.000266288
35 *173:59 0.000208255
36 *173:48 0.000688108
37 *173:20 0.000136044
38 *173:18 0.000260737
39 *173:10 0.000521467
40 *173:4 0.000933933
41 *2437:B *2438:A 1.08758e-05
42 *2451:B *2454:A 8.56021e-05
43 *173:18 *2456:A 0.000139933
44 *173:20 *2454:A 6.54156e-06
45 *173:48 *2450:A 4.82919e-05
46 *173:59 *2448:A 8.65961e-05
47 *173:66 *2446:A 2.75229e-05
48 *173:79 *2442:A 4.82863e-05
49 *173:107 *2424:A 3.72916e-05
50 *173:107 *2537:CLK 0.000115464
51 *173:107 *227:14 1.76403e-05
52 *173:118 *2424:A 2.17931e-05
53 *173:120 *2422:A 0
54 *173:124 *2422:A 0
55 *173:148 *2428:A 0
56 *173:148 *2430:A 0
57 *173:163 *2430:A 5.05437e-05
58 *173:182 *2434:A 7.42535e-05
59 spine_bot_iw[10] *173:107 4.11281e-05
60 spine_bot_iw[11] *173:124 0
61 spine_bot_iw[12] *173:148 0
62 spine_bot_iw[20] *173:182 0.000105592
63 spine_bot_iw[6] *173:124 0
64 spine_bot_iw[7] *173:118 0.000706593
65 spine_bot_iw[7] *173:120 0.000296504
66 spine_bot_iw[7] *173:124 0.000128212
67 *2423:A *173:118 0.000347017
68 *2425:A *2420:A 0.000652269
69 *2425:A *2425:B 0.000388555
70 *2427:A *173:161 3.70488e-05
71 *2429:A *173:161 0.000170402
72 *2431:A *2421:B 0.000349592
73 *2431:A *173:182 0
74 *2433:A *173:182 8.7152e-06
75 *2435:A *2421:B 0.000349592
76 *2435:A *2435:B 6.97118e-05
77 *2441:A *173:107 0.000140698
78 *2447:A *2443:B 0
79 *2447:A *173:66 0.000164874
80 *2447:A *173:70 0.000255161
81 *2447:A *173:79 9.51101e-05
82 *2447:A *173:88 9.93004e-05
83 *2447:A *173:107 0.000514772
84 *2451:A *173:18 8.25803e-05
85 *2534:CLK *2435:B 3.23663e-05
86 *2534:RESET_B *173:118 0.0001369
87 *2534:RESET_B *173:120 0.000197788
88 *22:44 *173:59 0.000124895
89 *22:44 *173:107 8.65961e-05
90 *22:44 *173:118 0.000421062
91 *24:68 *2360:A 8.64421e-05
92 *164:91 *173:118 0.000219692
93 *164:93 *173:118 0.00035749
*RES
1 *2545:X *173:4 1.6 
2 *173:4 *173:10 8.165 
3 *173:10 *173:18 4.955 
4 *173:18 *173:20 0.795 
5 *173:20 *2360:A 3.085 
6 *173:20 *2453:B 1.6 
7 *173:18 *2451:B 3.085 
8 *173:10 *2455:B 3.6 
9 *173:4 *173:48 7.695 
10 *173:48 *2449:B 1.96 
11 *173:48 *173:59 2.535 
12 *173:59 *2447:B 1.6 
13 *173:59 *173:66 2.175 
14 *173:66 *173:70 3.57 
15 *173:70 *2443:B 1.96 
16 *173:70 *173:79 2.175 
17 *173:79 *2441:B 1.96 
18 *173:79 *173:88 2.175 
19 *173:88 *2439:B 1.96 
20 *173:88 *173:107 14.92 
21 *173:107 *2423:B 1.6 
22 *173:107 *173:118 14.165 
23 *173:118 *173:120 3.675 
24 *173:120 *173:124 4.91 
25 *173:124 *2425:B 5.155 
26 *173:124 *2420:A 7.57 
27 *173:120 *173:148 14.385 
28 *173:148 *2427:B 1.6 
29 *173:148 *173:161 4.035 
30 *173:161 *173:163 2.175 
31 *173:163 *173:165 2.52 
32 *173:165 *2437:B 6.22 
33 *173:165 *173:182 6.4 
34 *173:182 *2433:B 1.6 
35 *173:182 *2435:B 4.15 
36 *173:163 *2431:B 1.6 
37 *173:161 *2429:B 1.6 
38 *173:118 *2421:B 6.81 
39 *173:66 *2445:B 1.6 
*END

*D_NET *174 0.000640918
*CONN
*I *2422:A I *D sky130_fd_sc_hd__buf_8
*I *2421:X O *D sky130_fd_sc_hd__and2_2
*CAP
1 *2422:A 0.000175858
2 *2421:X 0.000175858
3 spine_bot_iw[6] *2422:A 0.000289202
4 *2534:RESET_B *2422:A 0
5 *173:120 *2422:A 0
6 *173:124 *2422:A 0
*RES
1 *2421:X *2422:A 10.62 
*END

*D_NET *175 0.000902075
*CONN
*I *2424:A I *D sky130_fd_sc_hd__buf_8
*I *2423:X O *D sky130_fd_sc_hd__and2_2
*CAP
1 *2424:A 0.000232954
2 *2423:X 0.000232954
3 *2424:A *2536:CLK 7.75325e-05
4 spine_bot_iw[10] *2424:A 0.000293719
5 spine_bot_iw[9] *2424:A 0
6 *2423:A *2424:A 5.83121e-06
7 *173:107 *2424:A 3.72916e-05
8 *173:118 *2424:A 2.17931e-05
*RES
1 *2423:X *2424:A 12.105 
*END

*D_NET *176 0.000369998
*CONN
*I *2426:A I *D sky130_fd_sc_hd__buf_8
*I *2425:X O *D sky130_fd_sc_hd__and2_2
*CAP
1 *2426:A 0.0001588
2 *2425:X 0.0001588
3 spine_bot_iw[13] *2426:A 0
4 spine_bot_iw[7] *2426:A 0
5 spine_bot_iw[8] *2426:A 0
6 *2425:A *2426:A 5.2397e-05
*RES
1 *2425:X *2426:A 9.63 
*END

*D_NET *177 0.000952109
*CONN
*I *2428:A I *D sky130_fd_sc_hd__buf_8
*I *2427:X O *D sky130_fd_sc_hd__and2_2
*CAP
1 *2428:A 0.000289528
2 *2427:X 0.000289528
3 spine_bot_iw[13] *2428:A 0.00021116
4 *2427:A *2428:A 0.000161893
5 *173:148 *2428:A 0
*RES
1 *2427:X *2428:A 12.36 
*END

*D_NET *178 0.000356805
*CONN
*I *2430:A I *D sky130_fd_sc_hd__buf_8
*I *2429:X O *D sky130_fd_sc_hd__and2_2
*CAP
1 *2430:A 0.000149814
2 *2429:X 0.000149814
3 *2430:A *2432:A 0
4 spine_bot_iw[17] *2430:A 6.63219e-06
5 *173:148 *2430:A 0
6 *173:163 *2430:A 5.05437e-05
*RES
1 *2429:X *2430:A 9.375 
*END

*D_NET *179 0.000463453
*CONN
*I *2432:A I *D sky130_fd_sc_hd__buf_8
*I *2431:X O *D sky130_fd_sc_hd__and2_2
*CAP
1 *2432:A 0.000207167
2 *2431:X 0.000207167
3 *2432:A *2434:A 4.91189e-05
4 spine_bot_iw[16] *2432:A 0
5 spine_bot_iw[19] *2432:A 0
6 spine_bot_iw[20] *2432:A 0
7 *2430:A *2432:A 0
*RES
1 *2431:X *2432:A 10.875 
*END

*D_NET *180 0.000540548
*CONN
*I *2434:A I *D sky130_fd_sc_hd__buf_8
*I *2433:X O *D sky130_fd_sc_hd__and2_2
*CAP
1 *2434:A 0.000143876
2 *2433:X 0.000143876
3 spine_bot_iw[18] *2434:A 0.000129424
4 spine_bot_iw[20] *2434:A 0
5 *2431:A *2434:A 0
6 *2432:A *2434:A 4.91189e-05
7 *173:182 *2434:A 7.42535e-05
*RES
1 *2433:X *2434:A 10.62 
*END

*D_NET *181 0.000214105
*CONN
*I *2436:A I *D sky130_fd_sc_hd__buf_8
*I *2435:X O *D sky130_fd_sc_hd__and2_2
*CAP
1 *2436:A 0.000102005
2 *2435:X 0.000102005
3 spine_bot_iw[20] *2436:A 0
4 *2437:A *2436:A 1.00941e-05
*RES
1 *2435:X *2436:A 8.835 
*END

*D_NET *182 0.000334221
*CONN
*I *2438:A I *D sky130_fd_sc_hd__buf_8
*I *2437:X O *D sky130_fd_sc_hd__and2_2
*CAP
1 *2438:A 0.000161673
2 *2437:X 0.000161673
3 spine_bot_iw[20] *2438:A 0
4 *2437:B *2438:A 1.08758e-05
*RES
1 *2437:X *2438:A 9.375 
*END

*D_NET *183 0.000674575
*CONN
*I *2440:A I *D sky130_fd_sc_hd__buf_8
*I *2439:X O *D sky130_fd_sc_hd__and2_2
*CAP
1 *2440:A 0.000337287
2 *2439:X 0.000337287
3 *14:34 *2440:A 0
*RES
1 *2439:X *2440:A 12.66 
*END

*D_NET *184 0.00036546
*CONN
*I *2442:A I *D sky130_fd_sc_hd__buf_8
*I *2441:X O *D sky130_fd_sc_hd__and2_2
*CAP
1 *2442:A 8.83404e-05
2 *2441:X 8.83404e-05
3 *2442:A *2444:A 0
4 *2443:A *2442:A 2.67022e-05
5 *14:34 *2442:A 0.00011379
6 *173:79 *2442:A 4.82863e-05
*RES
1 *2441:X *2442:A 9.03 
*END

*D_NET *185 0.000491707
*CONN
*I *2444:A I *D sky130_fd_sc_hd__buf_8
*I *2443:X O *D sky130_fd_sc_hd__and2_2
*CAP
1 *2444:A 0.000204432
2 *2443:X 0.000204432
3 *2444:A *2446:A 0
4 spine_bot_iw[21] *2444:A 8.28419e-05
5 spine_bot_iw[22] *2444:A 0
6 spine_bot_iw[23] *2444:A 0
7 *2442:A *2444:A 0
8 *2443:A *2444:A 0
9 *14:34 *2444:A 0
*RES
1 *2443:X *2444:A 10.875 
*END

*D_NET *186 0.000573117
*CONN
*I *2446:A I *D sky130_fd_sc_hd__buf_8
*I *2445:X O *D sky130_fd_sc_hd__and2_2
*CAP
1 *2446:A 0.000256505
2 *2445:X 0.000256505
3 *2446:A *2448:A 0
4 spine_bot_iw[21] *2446:A 0
5 spine_bot_iw[23] *2446:A 3.25831e-05
6 spine_bot_iw[24] *2446:A 0
7 spine_bot_iw[25] *2446:A 0
8 *2444:A *2446:A 0
9 *2539:RESET_B *2446:A 0
10 *22:44 *2446:A 0
11 *173:66 *2446:A 2.75229e-05
*RES
1 *2445:X *2446:A 11.325 
*END

*D_NET *187 0.000399016
*CONN
*I *2448:A I *D sky130_fd_sc_hd__buf_8
*I *2447:X O *D sky130_fd_sc_hd__and2_2
*CAP
1 *2448:A 0.000104076
2 *2447:X 0.000104076
3 *2446:A *2448:A 0
4 *2539:RESET_B *2448:A 6.74079e-05
5 *22:44 *2448:A 3.68596e-05
6 *173:59 *2448:A 8.65961e-05
*RES
1 *2447:X *2448:A 9.375 
*END

*D_NET *188 0.00058256
*CONN
*I *2450:A I *D sky130_fd_sc_hd__buf_8
*I *2449:X O *D sky130_fd_sc_hd__and2_2
*CAP
1 *2450:A 0.000200822
2 *2449:X 0.000200822
3 *2539:RESET_B *2450:A 0.000132623
4 *173:48 *2450:A 4.82919e-05
*RES
1 *2449:X *2450:A 11.325 
*END

*D_NET *189 0.000838197
*CONN
*I *2452:A I *D sky130_fd_sc_hd__buf_8
*I *2451:X O *D sky130_fd_sc_hd__and2_2
*CAP
1 *2452:A 0.000366565
2 *2451:X 0.000366565
3 spine_bot_iw[27] *2452:A 0.000105068
*RES
1 *2451:X *2452:A 12.705 
*END

*D_NET *190 0.000587957
*CONN
*I *2454:A I *D sky130_fd_sc_hd__buf_8
*I *2453:X O *D sky130_fd_sc_hd__and2_2
*CAP
1 *2454:A 0.000247907
2 *2453:X 0.000247907
3 *2454:A *2456:A 0
4 *2451:B *2454:A 8.56021e-05
5 *173:20 *2454:A 6.54156e-06
*RES
1 *2453:X *2454:A 10.41 
*END

*D_NET *191 0.000969042
*CONN
*I *2456:A I *D sky130_fd_sc_hd__buf_8
*I *2455:X O *D sky130_fd_sc_hd__and2_2
*CAP
1 *2456:A 0.000391548
2 *2455:X 0.000391548
3 *2366:A *2456:A 0
4 *2451:A *2456:A 4.60123e-05
5 *2454:A *2456:A 0
6 *173:18 *2456:A 0.000139933
*RES
1 *2455:X *2456:A 13.71 
*END

*D_NET *192 0.010122
*CONN
*I *2505:A I *D sky130_fd_sc_hd__buf_8
*I *2457:A I *D sky130_fd_sc_hd__buf_8
*I *2534:Q O *D sky130_fd_sc_hd__dfrbp_2
*CAP
1 *2505:A 0
2 *2457:A 5.93895e-05
3 *2534:Q 0.000332265
4 *192:19 0.00283793
5 *192:8 0.00322958
6 *192:19 *2459:A 0
7 *192:19 *193:12 0.00282377
8 spine_bot_iw[2] *2457:A 0
9 spine_bot_iw[3] *192:19 5.20196e-05
10 spine_bot_iw[4] *2457:A 0.000118513
11 spine_bot_iw[4] *192:19 6.48391e-05
12 spine_top_iw[3] *192:19 0.000105068
13 spine_top_iw[6] *192:19 0
14 *2427:A *192:8 0.000498653
*RES
1 *2534:Q *192:8 8.19 
2 *192:8 *2457:A 4.98 
3 *192:8 *192:19 64.11 
4 *192:19 *2505:A 3.6 
*END

*D_NET *193 0.00825858
*CONN
*I *2458:A I *D sky130_fd_sc_hd__buf_8
*I *2506:A I *D sky130_fd_sc_hd__buf_8
*I *2535:Q O *D sky130_fd_sc_hd__dfrbp_2
*CAP
1 *2458:A 0
2 *2506:A 2.43002e-05
3 *2535:Q 0.000154861
4 *193:12 0.00242709
5 *193:10 0.00240279
6 *193:8 0.000154861
7 *2506:A *257:6 2.75145e-05
8 *193:8 *225:8 4.20909e-05
9 *193:12 *2459:A 0
10 *193:12 *194:19 0
11 spine_bot_iw[5] *193:12 0
12 spine_top_iw[6] *193:12 0.000201305
13 *192:19 *193:12 0.00282377
*RES
1 *2535:Q *193:8 3.7 
2 *193:8 *193:10 2 
3 *193:10 *193:12 57.225 
4 *193:12 *2506:A 4.05 
5 *193:8 *2458:A 1.6 
*END

*D_NET *194 0.00862287
*CONN
*I *2507:A I *D sky130_fd_sc_hd__buf_8
*I *2459:A I *D sky130_fd_sc_hd__buf_8
*I *2536:Q O *D sky130_fd_sc_hd__dfrbp_2
*CAP
1 *2507:A 0
2 *2459:A 0.000378658
3 *2536:Q 0
4 *194:19 0.0032104
5 *194:6 0.00358906
6 *194:19 *195:17 0
7 spine_bot_iw[4] *2459:A 0
8 spine_bot_iw[5] *194:19 0.000148475
9 spine_bot_iw[6] *2459:A 0.000365323
10 spine_bot_iw[6] *194:19 0.000305933
11 spine_top_iw[5] *194:19 0.000187064
12 spine_top_iw[6] *194:19 0.00037126
13 *2427:A *2459:A 4.89295e-05
14 *2429:A *2459:A 1.77665e-05
15 *192:19 *2459:A 0
16 *193:12 *2459:A 0
17 *193:12 *194:19 0
*RES
1 *2536:Q *194:6 3.6 
2 *194:6 *2459:A 11.805 
3 *194:6 *194:19 57.735 
4 *194:19 *2507:A 3.6 
*END

*D_NET *195 0.0069336
*CONN
*I *2508:A I *D sky130_fd_sc_hd__buf_8
*I *2460:A I *D sky130_fd_sc_hd__buf_8
*I *2537:Q O *D sky130_fd_sc_hd__dfrbp_2
*CAP
1 *2508:A 0
2 *2460:A 7.45782e-05
3 *2537:Q 0
4 *195:17 0.00247962
5 *195:6 0.0025542
6 *195:17 *2461:A 4.70256e-05
7 *195:17 *2509:A 0.00145107
8 spine_bot_iw[6] *2460:A 6.20952e-05
9 spine_bot_iw[6] *195:17 0.000117716
10 spine_top_iw[7] *195:17 0
11 spine_top_iw[8] *195:17 0.000147293
12 *164:89 *195:17 0
13 *164:91 *2460:A 0
14 *164:91 *195:17 0
15 *194:19 *195:17 0
*RES
1 *2537:Q *195:6 3.6 
2 *195:6 *2460:A 4.98 
3 *195:6 *195:17 51.87 
4 *195:17 *2508:A 3.6 
*END

*D_NET *196 0.00539243
*CONN
*I *2509:A I *D sky130_fd_sc_hd__buf_8
*I *2461:A I *D sky130_fd_sc_hd__buf_8
*I *2538:Q O *D sky130_fd_sc_hd__dfrbp_2
*CAP
1 *2509:A 0.00177451
2 *2461:A 4.44144e-05
3 *2538:Q 6.63665e-05
4 *196:8 0.00188529
5 *2509:A *2465:A 0
6 *2509:A *2513:A 0
7 *196:8 *228:8 2.8185e-05
8 spine_bot_iw[8] *2509:A 0
9 spine_bot_iw[9] *2509:A 0
10 spine_top_iw[7] *2509:A 0
11 *164:89 *2461:A 6.5525e-05
12 *164:89 *2509:A 2.42236e-05
13 *164:89 *196:8 5.83121e-06
14 *195:17 *2461:A 4.70256e-05
15 *195:17 *2509:A 0.00145107
*RES
1 *2538:Q *196:8 4.395 
2 *196:8 *2461:A 4.98 
3 *196:8 *2509:A 43.23 
*END

*D_NET *197 0.00517684
*CONN
*I *2510:A I *D sky130_fd_sc_hd__buf_8
*I *2462:A I *D sky130_fd_sc_hd__buf_8
*I *2540:Q O *D sky130_fd_sc_hd__dfrbp_2
*CAP
1 *2510:A 0.000661145
2 *2462:A 0.000221396
3 *2540:Q 0.000694952
4 *197:8 0.00157749
5 *2510:A *2463:A 2.84137e-05
6 *2510:A *2465:A 0
7 *2510:A *2511:A 0.000428467
8 *2510:A *2513:A 0
9 *197:8 *2464:A 4.92062e-05
10 spine_bot_iw[10] *2462:A 0.000476003
11 spine_bot_iw[10] *2510:A 0.000225394
12 spine_bot_iw[9] *2462:A 0
13 spine_bot_iw[9] *2510:A 0
14 *164:39 *197:8 0.000318091
15 *164:52 *197:8 0.000496278
*RES
1 *2540:Q *197:8 13.02 
2 *197:8 *2462:A 9.06 
3 *197:8 *2510:A 18.75 
*END

*D_NET *198 0.0049254
*CONN
*I *2511:A I *D sky130_fd_sc_hd__buf_8
*I *2463:A I *D sky130_fd_sc_hd__buf_8
*I *2541:Q O *D sky130_fd_sc_hd__dfrbp_2
*CAP
1 *2511:A 0.000600945
2 *2463:A 0.000159703
3 *2541:Q 0.000322907
4 *198:8 0.00108355
5 *2463:A *2464:A 0.000255338
6 *2511:A *2464:A 0.000354441
7 *2511:A *2512:A 0.00140272
8 *2511:A *2513:A 0
9 *198:8 *232:8 3.72916e-05
10 spine_bot_iw[10] *2463:A 0.000189291
11 *2510:A *2463:A 2.84137e-05
12 *2510:A *2511:A 0.000428467
13 *2538:RESET_B *2463:A 5.42386e-05
14 *164:64 *2463:A 8.09021e-06
*RES
1 *2541:Q *198:8 7.155 
2 *198:8 *2463:A 8.745 
3 *198:8 *2511:A 23.595 
*END

*D_NET *199 0.00701985
*CONN
*I *2512:A I *D sky130_fd_sc_hd__buf_8
*I *2464:A I *D sky130_fd_sc_hd__buf_8
*I *2542:Q O *D sky130_fd_sc_hd__dfrbp_2
*CAP
1 *2512:A 0.00177774
2 *2464:A 0.000207498
3 *2542:Q 0
4 *199:6 0.00198524
5 *2512:A *2474:A 0.000270078
6 *2512:A *2476:A 0
7 *2512:A *2513:A 0
8 spine_top_iw[10] *2512:A 7.63125e-05
9 spine_top_iw[14] *2512:A 0.000288218
10 *2463:A *2464:A 0.000255338
11 *2475:A *2512:A 0
12 *2495:A *2512:A 1.83847e-05
13 *2511:A *2464:A 0.000354441
14 *2511:A *2512:A 0.00140272
15 *2542:RESET_B *2464:A 0.000140852
16 *164:64 *2464:A 0.000193807
17 *197:8 *2464:A 4.92062e-05
*RES
1 *2542:Q *199:6 3.6 
2 *199:6 *2464:A 11.385 
3 *199:6 *2512:A 42.15 
*END

*D_NET *200 0.00545805
*CONN
*I *2513:A I *D sky130_fd_sc_hd__buf_8
*I *2465:A I *D sky130_fd_sc_hd__buf_8
*I *2543:Q O *D sky130_fd_sc_hd__dfrbp_2
*CAP
1 *2513:A 0.002296
2 *2465:A 0.000141371
3 *2543:Q 0
4 *200:6 0.00243737
5 *2513:A *2474:A 0
6 *2513:A *2663:A 2.75229e-05
7 spine_top_iw[7] *2513:A 0
8 spine_top_iw[8] *2513:A 0.000555782
9 *2509:A *2465:A 0
10 *2509:A *2513:A 0
11 *2510:A *2465:A 0
12 *2510:A *2513:A 0
13 *2511:A *2513:A 0
14 *2512:A *2513:A 0
*RES
1 *2543:Q *200:6 3.6 
2 *200:6 *2465:A 5.775 
3 *200:6 *2513:A 43.68 
*END

*D_NET *203 0.017283
*CONN
*I *2469:B I *D sky130_fd_sc_hd__and2_2
*I *2468:A I *D sky130_fd_sc_hd__buf_8
*I *2471:B I *D sky130_fd_sc_hd__and2_2
*I *2487:B I *D sky130_fd_sc_hd__and2_2
*I *2479:B I *D sky130_fd_sc_hd__and2_2
*I *2477:B I *D sky130_fd_sc_hd__and2_2
*I *2481:B I *D sky130_fd_sc_hd__and2_2
*I *2483:B I *D sky130_fd_sc_hd__and2_2
*I *2485:B I *D sky130_fd_sc_hd__and2_2
*I *2475:B I *D sky130_fd_sc_hd__and2_2
*I *2473:B I *D sky130_fd_sc_hd__and2_2
*I *2489:B I *D sky130_fd_sc_hd__and2_2
*I *2491:B I *D sky130_fd_sc_hd__and2_2
*I *2493:B I *D sky130_fd_sc_hd__and2_2
*I *2495:B I *D sky130_fd_sc_hd__and2_2
*I *2497:B I *D sky130_fd_sc_hd__and2_2
*I *2499:B I *D sky130_fd_sc_hd__and2_2
*I *2501:B I *D sky130_fd_sc_hd__and2_2
*I *2503:B I *D sky130_fd_sc_hd__and2_2
*I *2361:A I *D sky130_fd_sc_hd__inv_2
*I *2548:X O *D sky130_fd_sc_hd__buf_8
*CAP
1 *2469:B 0
2 *2468:A 0.000406836
3 *2471:B 0
4 *2487:B 0
5 *2479:B 0.000149567
6 *2477:B 2.3344e-05
7 *2481:B 0
8 *2483:B 9.53238e-05
9 *2485:B 9.43573e-05
10 *2475:B 0
11 *2473:B 0.000242858
12 *2489:B 0
13 *2491:B 1.04051e-05
14 *2493:B 2.08101e-05
15 *2495:B 0.000169537
16 *2497:B 0
17 *2499:B 0
18 *2501:B 0
19 *2503:B 4.51115e-05
20 *2361:A 2.48066e-05
21 *2548:X 0.000656296
22 *203:212 0.000486938
23 *203:205 0.000206805
24 *203:192 0.000171701
25 *203:149 0.000270379
26 *203:147 0.000248007
27 *203:145 0.000213983
28 *203:125 0.000651159
29 *203:115 0.000620417
30 *203:113 0.000884071
31 *203:109 0.000625859
32 *203:102 9.4757e-05
33 *203:91 0.000119297
34 *203:82 0.00020762
35 *203:60 0.000634337
36 *203:45 0.000374304
37 *203:38 0.00021612
38 *203:21 0.000721728
39 *203:10 0.00118863
40 *2361:A *258:6 2.68526e-05
41 *2468:A *2470:A 7.91745e-05
42 *2473:B *2474:A 2.77183e-05
43 *2479:B *258:6 3.23663e-05
44 *2483:B *2482:A 4.91189e-05
45 *2483:B *2486:A 0
46 *2495:B *2496:A 0
47 *2495:B *279:8 0.000145184
48 *2495:B *282:8 0.000239813
49 *2503:B *279:8 0.000122801
50 *2503:B *282:8 4.40028e-05
51 *203:38 *2504:A 0
52 *203:38 *280:12 4.77757e-05
53 *203:45 *2502:A 2.78574e-05
54 *203:45 *280:12 0.000223822
55 *203:60 *2500:A 1.47256e-05
56 *203:60 *2502:A 2.11084e-05
57 *203:60 *280:12 0.000113237
58 *203:60 *280:14 0.000371615
59 *203:82 *280:14 0.000660264
60 *203:91 *280:14 0.00027653
61 *203:102 *280:14 0.000275037
62 *203:109 *280:14 0.000110214
63 *203:115 *2476:A 0
64 *203:115 *2478:A 0.000313757
65 *203:125 *2476:A 0
66 *203:192 *280:14 0.000162975
67 *203:205 *280:14 0.000405118
68 *203:212 *280:14 0.000265859
69 spine_top_iw[11] *2468:A 4.18147e-05
70 spine_top_iw[15] *203:113 0
71 spine_top_iw[16] *203:113 0.000290902
72 spine_top_iw[16] *203:115 1.1561e-05
73 spine_top_iw[17] *203:113 0
74 spine_top_iw[5] *2468:A 0
75 spine_top_iw[9] *2468:A 0
76 *2394:A *203:10 0
77 *2479:A *2479:B 8.88631e-05
78 *2481:A *203:147 7.66083e-05
79 *2481:A *203:149 0.0001249
80 *2485:A *2485:B 0.00012657
81 *2485:A *203:149 1.91521e-05
82 *2497:A *203:82 0.00035014
83 *2497:A *203:91 0.000152758
84 *2497:A *203:102 0.000148639
85 *2497:A *203:109 0.000199407
86 *2497:A *203:192 0.000265143
87 *2497:A *203:205 0.000567818
88 *2497:A *203:212 0.000465065
89 *2499:A *203:38 6.69608e-06
90 *2499:A *203:45 9.47017e-05
91 *2503:A *2503:B 4.77757e-05
92 *16:53 *2477:B 2.05056e-05
93 *16:53 *203:145 5.05297e-06
94 *16:53 *203:147 0.000207263
95 *16:53 *203:149 2.6189e-05
96 *23:59 *203:38 1.31297e-05
*RES
1 *2548:X *203:10 14.355 
2 *203:10 *2361:A 4.05 
3 *203:10 *203:21 8.01 
4 *203:21 *2503:B 5.1 
5 *203:21 *203:38 4.595 
6 *203:38 *2501:B 1.6 
7 *203:38 *203:45 2.175 
8 *203:45 *2499:B 1.6 
9 *203:45 *203:60 11.56 
10 *203:60 *2497:B 1.6 
11 *203:60 *2495:B 9.665 
12 *203:60 *203:82 6.33 
13 *203:82 *2493:B 1.96 
14 *203:82 *203:91 2.52 
15 *203:91 *2491:B 1.96 
16 *203:91 *203:102 2.88 
17 *203:102 *2489:B 1.6 
18 *203:102 *203:109 1.83 
19 *203:109 *203:113 11.795 
20 *203:113 *203:115 4.185 
21 *203:115 *203:125 7.73 
22 *203:125 *2473:B 5.185 
23 *203:125 *2475:B 1.6 
24 *203:115 *203:145 2.36 
25 *203:145 *203:147 3.9 
26 *203:147 *203:149 1.83 
27 *203:149 *2485:B 3.43 
28 *203:149 *2483:B 7.49 
29 *203:147 *2481:B 1.6 
30 *203:145 *2477:B 2.05 
31 *203:113 *2479:B 6.135 
32 *203:109 *203:192 2.52 
33 *203:192 *2487:B 1.6 
34 *203:192 *203:205 6.45 
35 *203:205 *2471:B 1.6 
36 *203:205 *203:212 4.245 
37 *203:212 *2468:A 12.305 
38 *203:212 *2469:B 1.6 
*END

*D_NET *204 0.000228547
*CONN
*I *2470:A I *D sky130_fd_sc_hd__buf_8
*I *2469:X O *D sky130_fd_sc_hd__and2_2
*CAP
1 *2470:A 7.4686e-05
2 *2469:X 7.4686e-05
3 *2470:A *2472:A 0
4 *2468:A *2470:A 7.91745e-05
*RES
1 *2469:X *2470:A 8.835 
*END

*D_NET *205 0.000522822
*CONN
*I *2472:A I *D sky130_fd_sc_hd__buf_8
*I *2471:X O *D sky130_fd_sc_hd__and2_2
*CAP
1 *2472:A 0.000161412
2 *2471:X 0.000161412
3 *2472:A *280:14 0.000122699
4 spine_top_iw[9] *2472:A 7.72994e-05
5 *2470:A *2472:A 0
*RES
1 *2471:X *2472:A 9.975 
*END

*D_NET *206 0.00109919
*CONN
*I *2474:A I *D sky130_fd_sc_hd__buf_8
*I *2473:X O *D sky130_fd_sc_hd__and2_2
*CAP
1 *2474:A 0.000398234
2 *2473:X 0.000398234
3 *2473:A *2474:A 4.9253e-06
4 *2473:B *2474:A 2.77183e-05
5 *2512:A *2474:A 0.000270078
6 *2513:A *2474:A 0
*RES
1 *2473:X *2474:A 14.4 
*END

*D_NET *207 0.000450045
*CONN
*I *2476:A I *D sky130_fd_sc_hd__buf_8
*I *2475:X O *D sky130_fd_sc_hd__and2_2
*CAP
1 *2476:A 0.000225023
2 *2475:X 0.000225023
3 spine_top_iw[14] *2476:A 0
4 *2512:A *2476:A 0
5 *203:115 *2476:A 0
6 *203:125 *2476:A 0
*RES
1 *2475:X *2476:A 10.62 
*END

*D_NET *208 0.000739925
*CONN
*I *2478:A I *D sky130_fd_sc_hd__buf_8
*I *2477:X O *D sky130_fd_sc_hd__and2_2
*CAP
1 *2478:A 0.0001112
2 *2477:X 0.0001112
3 spine_top_iw[16] *2478:A 0.000203769
4 *203:115 *2478:A 0.000313757
*RES
1 *2477:X *2478:A 10.875 
*END

*D_NET *209 0.0002075
*CONN
*I *2480:A I *D sky130_fd_sc_hd__buf_8
*I *2479:X O *D sky130_fd_sc_hd__and2_2
*CAP
1 *2480:A 0.00010375
2 *2479:X 0.00010375
3 *2480:A *2482:A 0
4 spine_top_iw[16] *2480:A 0
*RES
1 *2479:X *2480:A 8.835 
*END

*D_NET *210 0.00105411
*CONN
*I *2482:A I *D sky130_fd_sc_hd__buf_8
*I *2481:X O *D sky130_fd_sc_hd__and2_2
*CAP
1 *2482:A 0.000408959
2 *2481:X 0.000408959
3 *2482:A *2484:A 0
4 *2482:A *2486:A 0
5 spine_top_iw[18] *2482:A 0.000187071
6 spine_top_iw[19] *2482:A 0
7 *2480:A *2482:A 0
8 *2483:B *2482:A 4.91189e-05
*RES
1 *2481:X *2482:A 14.955 
*END

*D_NET *211 0.000521952
*CONN
*I *2484:A I *D sky130_fd_sc_hd__buf_8
*I *2483:X O *D sky130_fd_sc_hd__and2_2
*CAP
1 *2484:A 0.000166263
2 *2483:X 0.000166263
3 *2484:A *2486:A 0
4 spine_top_iw[19] *2484:A 0.000189426
5 *2482:A *2484:A 0
*RES
1 *2483:X *2484:A 10.62 
*END

*D_NET *212 0.000450496
*CONN
*I *2486:A I *D sky130_fd_sc_hd__buf_8
*I *2485:X O *D sky130_fd_sc_hd__and2_2
*CAP
1 *2486:A 0.000225248
2 *2485:X 0.000225248
3 *2482:A *2486:A 0
4 *2483:B *2486:A 0
5 *2484:A *2486:A 0
*RES
1 *2485:X *2486:A 10.875 
*END

*D_NET *213 0.000466172
*CONN
*I *2488:A I *D sky130_fd_sc_hd__buf_8
*I *2487:X O *D sky130_fd_sc_hd__and2_2
*CAP
1 *2488:A 0.000189318
2 *2487:X 0.000189318
3 *2488:A *2490:A 0
4 spine_top_iw[21] *2488:A 8.75364e-05
*RES
1 *2487:X *2488:A 10.62 
*END

*D_NET *214 0.0004925
*CONN
*I *2490:A I *D sky130_fd_sc_hd__buf_8
*I *2489:X O *D sky130_fd_sc_hd__and2_2
*CAP
1 *2490:A 0.000183619
2 *2489:X 0.000183619
3 *2490:A *2492:A 0
4 *2490:A *280:14 0.000125262
5 spine_top_iw[17] *2490:A 0
6 spine_top_iw[21] *2490:A 0
7 spine_top_iw[22] *2490:A 0
8 *2488:A *2490:A 0
*RES
1 *2489:X *2490:A 9.975 
*END

*D_NET *215 0.000231898
*CONN
*I *2492:A I *D sky130_fd_sc_hd__buf_8
*I *2491:X O *D sky130_fd_sc_hd__and2_2
*CAP
1 *2492:A 7.47619e-05
2 *2491:X 7.47619e-05
3 *2492:A *2494:A 0
4 spine_top_iw[17] *2492:A 3.38178e-05
5 spine_top_iw[18] *2492:A 3.12569e-05
6 spine_top_iw[22] *2492:A 1.72991e-05
7 *2490:A *2492:A 0
*RES
1 *2491:X *2492:A 8.835 
*END

*D_NET *216 0.00032646
*CONN
*I *2494:A I *D sky130_fd_sc_hd__buf_8
*I *2493:X O *D sky130_fd_sc_hd__and2_2
*CAP
1 *2494:A 0.00016323
2 *2493:X 0.00016323
3 spine_top_iw[18] *2494:A 0
4 spine_top_iw[24] *2494:A 0
5 *2492:A *2494:A 0
*RES
1 *2493:X *2494:A 9.63 
*END

*D_NET *217 0.000194299
*CONN
*I *2496:A I *D sky130_fd_sc_hd__buf_8
*I *2495:X O *D sky130_fd_sc_hd__and2_2
*CAP
1 *2496:A 9.71496e-05
2 *2495:X 9.71496e-05
3 spine_top_iw[24] *2496:A 0
4 *2495:B *2496:A 0
*RES
1 *2495:X *2496:A 8.58 
*END

*D_NET *218 0.0002024
*CONN
*I *2498:A I *D sky130_fd_sc_hd__buf_8
*I *2497:X O *D sky130_fd_sc_hd__and2_2
*CAP
1 *2498:A 9.50445e-05
2 *2497:X 9.50445e-05
3 spine_top_iw[25] *2498:A 1.23107e-05
4 spine_top_iw[26] *2498:A 0
*RES
1 *2497:X *2498:A 8.835 
*END

*D_NET *219 0.000474962
*CONN
*I *2500:A I *D sky130_fd_sc_hd__buf_8
*I *2499:X O *D sky130_fd_sc_hd__and2_2
*CAP
1 *2500:A 0.00018682
2 *2499:X 0.00018682
3 *2500:A *2502:A 0
4 *2500:A *280:14 8.65961e-05
5 spine_top_iw[26] *2500:A 0
6 *203:60 *2500:A 1.47256e-05
*RES
1 *2499:X *2500:A 9.975 
*END

*D_NET *220 0.00115992
*CONN
*I *2502:A I *D sky130_fd_sc_hd__buf_8
*I *2501:X O *D sky130_fd_sc_hd__and2_2
*CAP
1 *2502:A 0.000405352
2 *2501:X 0.000405352
3 *2502:A *2504:A 7.2208e-05
4 spine_top_iw[26] *2502:A 0
5 spine_top_iw[28] *2502:A 0.000141599
6 *2499:A *2502:A 8.64421e-05
7 *2500:A *2502:A 0
8 *203:45 *2502:A 2.78574e-05
9 *203:60 *2502:A 2.11084e-05
*RES
1 *2501:X *2502:A 13.935 
*END

*D_NET *221 0.000845822
*CONN
*I *2504:A I *D sky130_fd_sc_hd__buf_8
*I *2503:X O *D sky130_fd_sc_hd__and2_2
*CAP
1 *2504:A 0.000362342
2 *2503:X 0.000362342
3 *2504:A *282:8 4.89295e-05
4 *2502:A *2504:A 7.2208e-05
5 *203:38 *2504:A 0
*RES
1 *2503:X *2504:A 12.81 
*END

*D_NET *224 0.00177123
*CONN
*I *2535:CLK I *D sky130_fd_sc_hd__dfrbp_2
*I *2534:D I *D sky130_fd_sc_hd__dfrbp_2
*I *2534:Q_N O *D sky130_fd_sc_hd__dfrbp_2
*CAP
1 *2535:CLK 0.00024167
2 *2534:D 3.4259e-05
3 *2534:Q_N 0.000157725
4 *224:8 0.000433654
5 spine_bot_iw[10] *2535:CLK 0.000106824
6 spine_bot_iw[12] *2535:CLK 0
7 spine_bot_iw[8] *2535:CLK 0
8 spine_bot_iw[9] *2535:CLK 0
9 *2427:A *2534:D 7.01753e-05
10 *2427:A *224:8 0.000222033
11 *2429:A *2534:D 9.55766e-05
12 *2429:A *224:8 0.000332409
13 *2534:RESET_B *224:8 7.69078e-05
*RES
1 *2534:Q_N *224:8 7.24 
2 *224:8 *2534:D 3.085 
3 *224:8 *2535:CLK 9.53 
*END

*D_NET *225 0.00197385
*CONN
*I *2535:D I *D sky130_fd_sc_hd__dfrbp_2
*I *2536:CLK I *D sky130_fd_sc_hd__dfrbp_2
*I *2535:Q_N O *D sky130_fd_sc_hd__dfrbp_2
*CAP
1 *2535:D 0
2 *2536:CLK 0.00021032
3 *2535:Q_N 0.000488675
4 *225:8 0.000698995
5 *2536:CLK *2537:CLK 6.49558e-05
6 *2536:CLK *226:6 2.52616e-05
7 spine_bot_iw[10] *2536:CLK 0
8 spine_bot_iw[9] *2536:CLK 0.000366021
9 *2424:A *2536:CLK 7.75325e-05
10 *193:8 *225:8 4.20909e-05
*RES
1 *2535:Q_N *225:8 8.62 
2 *225:8 *2536:CLK 11.27 
3 *225:8 *2535:D 1.6 
*END

*D_NET *226 0.00232343
*CONN
*I *2536:D I *D sky130_fd_sc_hd__dfrbp_2
*I *2537:CLK I *D sky130_fd_sc_hd__dfrbp_2
*I *2536:Q_N O *D sky130_fd_sc_hd__dfrbp_2
*CAP
1 *2536:D 0
2 *2537:CLK 0.000414044
3 *2536:Q_N 0.000637852
4 *226:6 0.0010519
5 *2537:CLK *2538:CLK 1.39525e-05
6 spine_bot_iw[10] *2537:CLK 0
7 *2536:CLK *2537:CLK 6.49558e-05
8 *2536:CLK *226:6 2.52616e-05
9 *173:107 *2537:CLK 0.000115464
*RES
1 *2536:Q_N *226:6 8.27125 
2 *226:6 *2537:CLK 11.4688 
3 *226:6 *2536:D 1.6 
*END

*D_NET *227 0.00271929
*CONN
*I *2537:D I *D sky130_fd_sc_hd__dfrbp_2
*I *2538:CLK I *D sky130_fd_sc_hd__dfrbp_2
*I *2537:Q_N O *D sky130_fd_sc_hd__dfrbp_2
*CAP
1 *2537:D 0
2 *2538:CLK 0.000434182
3 *2537:Q_N 0.000556721
4 *227:14 0.000990903
5 *2538:CLK *2539:CLK 5.34747e-05
6 *2538:CLK *228:8 1.12578e-05
7 spine_bot_iw[10] *2538:CLK 0.000179092
8 *2447:A *2538:CLK 2.75229e-05
9 *2447:A *227:14 0.000309648
10 *2537:CLK *2538:CLK 1.39525e-05
11 *2538:RESET_B *2538:CLK 0.000124895
12 *173:107 *227:14 1.76403e-05
*RES
1 *2537:Q_N *227:14 9.445 
2 *227:14 *2538:CLK 13.115 
3 *227:14 *2537:D 1.6 
*END

*D_NET *228 0.0028472
*CONN
*I *2538:D I *D sky130_fd_sc_hd__dfrbp_2
*I *2539:CLK I *D sky130_fd_sc_hd__dfrbp_2
*I *2538:Q_N O *D sky130_fd_sc_hd__dfrbp_2
*CAP
1 *2538:D 0
2 *2539:CLK 0.00078512
3 *2538:Q_N 0.00040061
4 *228:8 0.00118573
5 *2538:CLK *2539:CLK 5.34747e-05
6 *2538:CLK *228:8 1.12578e-05
7 *2538:RESET_B *228:8 9.31061e-05
8 *2540:RESET_B *2539:CLK 9.66021e-05
9 *164:89 *228:8 0.00019311
10 *196:8 *228:8 2.8185e-05
*RES
1 *2538:Q_N *228:8 8.62 
2 *228:8 *2539:CLK 14.125 
3 *228:8 *2538:D 1.6 
*END

*D_NET *229 0.00149175
*CONN
*I *2539:D I *D sky130_fd_sc_hd__dfrbp_2
*I *2540:CLK I *D sky130_fd_sc_hd__dfrbp_2
*I *2539:Q_N O *D sky130_fd_sc_hd__dfrbp_2
*CAP
1 *2539:D 2.05484e-05
2 *2540:CLK 0.000237949
3 *2539:Q_N 0.000377993
4 *229:8 0.000636491
5 *229:8 *230:8 5.30673e-05
6 *2539:RESET_B *229:8 4.70477e-05
7 *2540:RESET_B *2539:D 2.30292e-05
8 *2540:RESET_B *2540:CLK 0
9 *2540:RESET_B *229:8 9.56213e-05
*RES
1 *2539:Q_N *229:8 8.275 
2 *229:8 *2540:CLK 9.53 
3 *229:8 *2539:D 2.05 
*END

*D_NET *230 0.0021688
*CONN
*I *2549:A I *D sky130_fd_sc_hd__buf_8
*I *2547:A I *D sky130_fd_sc_hd__and2_2
*I *2546:A I *D sky130_fd_sc_hd__inv_2
*I *2539:Q O *D sky130_fd_sc_hd__dfrbp_2
*CAP
1 *2549:A 2.09808e-05
2 *2547:A 9.76905e-05
3 *2546:A 8.74787e-05
4 *2539:Q 0.000591437
5 *230:12 0.000371116
6 *230:8 0.000798364
7 *2546:A *2690:S 0
8 *2547:A *2548:A 1.89685e-05
9 *2547:B *2546:A 4.49585e-05
10 *2547:B *2547:A 8.47372e-05
11 *229:8 *230:8 5.30673e-05
*RES
1 *2539:Q *230:8 10 
2 *230:8 *230:12 4.52 
3 *230:12 *2546:A 5.235 
4 *230:12 *2547:A 6 
5 *230:8 *2549:A 1.96 
*END

*D_NET *231 0.00132168
*CONN
*I *2541:CLK I *D sky130_fd_sc_hd__dfrbp_2
*I *2540:D I *D sky130_fd_sc_hd__dfrbp_2
*I *2540:Q_N O *D sky130_fd_sc_hd__dfrbp_2
*CAP
1 *2541:CLK 7.67979e-05
2 *2540:D 0.000269684
3 *2540:Q_N 0.000161174
4 *231:8 0.000507656
5 *2541:CLK *2542:CLK 0
6 *14:34 *2541:CLK 0.000164686
7 *164:39 *231:8 0.00014168
*RES
1 *2540:Q_N *231:8 4.825 
2 *231:8 *2540:D 5.5 
3 *231:8 *2541:CLK 7.49 
*END

*D_NET *232 0.001457
*CONN
*I *2542:CLK I *D sky130_fd_sc_hd__dfrbp_2
*I *2541:D I *D sky130_fd_sc_hd__dfrbp_2
*I *2541:Q_N O *D sky130_fd_sc_hd__dfrbp_2
*CAP
1 *2542:CLK 0.000250387
2 *2541:D 0.00014631
3 *2541:Q_N 0.000313157
4 *232:8 0.000709855
5 *2542:CLK *2543:CLK 0
6 *2541:CLK *2542:CLK 0
7 *2541:RESET_B *2542:CLK 0
8 *14:34 *2542:CLK 0
9 *198:8 *232:8 3.72916e-05
*RES
1 *2541:Q_N *232:8 6.55 
2 *232:8 *2541:D 3.775 
3 *232:8 *2542:CLK 9.785 
*END

*D_NET *233 0.0012262
*CONN
*I *2543:CLK I *D sky130_fd_sc_hd__dfrbp_2
*I *2542:D I *D sky130_fd_sc_hd__dfrbp_2
*I *2542:Q_N O *D sky130_fd_sc_hd__dfrbp_2
*CAP
1 *2543:CLK 0.00011485
2 *2542:D 0.000125308
3 *2542:Q_N 0.000349421
4 *233:8 0.000589579
5 *2542:CLK *2543:CLK 0
6 *2542:RESET_B *2543:CLK 0
7 *2542:RESET_B *233:8 4.70393e-05
*RES
1 *2542:Q_N *233:8 6.895 
2 *233:8 *2542:D 3.43 
3 *233:8 *2543:CLK 7.49 
*END

*D_NET *234 0.000985049
*CONN
*I *2543:D I *D sky130_fd_sc_hd__dfrbp_2
*I *2543:Q_N O *D sky130_fd_sc_hd__dfrbp_2
*CAP
1 *2543:D 0.000492525
2 *2543:Q_N 0.000492525
*RES
1 *2543:Q_N *2543:D 10.22 
*END

*D_NET *235 0.000180712
*CONN
*I *2544:A I *D sky130_fd_sc_hd__and2_2
*I *2546:Y O *D sky130_fd_sc_hd__inv_2
*CAP
1 *2544:A 4.97273e-05
2 *2546:Y 4.97273e-05
3 *2544:A *2545:A 5.83121e-06
4 *2544:B *2544:A 7.54262e-05
*RES
1 *2546:Y *2544:A 4.34 
*END

*D_NET *236 0.000503968
*CONN
*I *2545:A I *D sky130_fd_sc_hd__buf_8
*I *2544:X O *D sky130_fd_sc_hd__and2_2
*CAP
1 *2545:A 0.000238576
2 *2544:X 0.000238576
3 *2545:A *2690:S 0
4 *2544:A *2545:A 5.83121e-06
5 *2544:B *2545:A 2.09848e-05
*RES
1 *2544:X *2545:A 10.32 
*END

*D_NET *237 0.00410273
*CONN
*I *2548:A I *D sky130_fd_sc_hd__buf_8
*I *2547:X O *D sky130_fd_sc_hd__and2_2
*CAP
1 *2548:A 0.00203897
2 *2547:X 0.00203897
3 *2548:A *238:12 0
4 *2547:A *2548:A 1.89685e-05
5 *2547:B *2548:A 5.83121e-06
*RES
1 *2547:X *2548:A 40.44 
*END

*D_NET *238 0.0328039
*CONN
*I *2690:S I *D sky130_fd_sc_hd__mux2_2
*I *2651:S I *D sky130_fd_sc_hd__mux2_2
*I *2652:S I *D sky130_fd_sc_hd__mux2_2
*I *2684:S I *D sky130_fd_sc_hd__mux2_2
*I *2687:S I *D sky130_fd_sc_hd__mux2_2
*I *2685:S I *D sky130_fd_sc_hd__mux2_2
*I *2686:S I *D sky130_fd_sc_hd__mux2_2
*I *2683:S I *D sky130_fd_sc_hd__mux2_2
*I *2688:S I *D sky130_fd_sc_hd__mux2_2
*I *2653:S I *D sky130_fd_sc_hd__mux2_2
*I *2619:S I *D sky130_fd_sc_hd__mux2_2
*I *2620:S I *D sky130_fd_sc_hd__mux2_2
*I *2655:S I *D sky130_fd_sc_hd__mux2_2
*I *2621:S I *D sky130_fd_sc_hd__mux2_2
*I *2622:S I *D sky130_fd_sc_hd__mux2_2
*I *2623:S I *D sky130_fd_sc_hd__mux2_2
*I *2626:S I *D sky130_fd_sc_hd__mux2_2
*I *2656:S I *D sky130_fd_sc_hd__mux2_2
*I *2624:S I *D sky130_fd_sc_hd__mux2_2
*I *2625:S I *D sky130_fd_sc_hd__mux2_2
*I *2658:S I *D sky130_fd_sc_hd__mux2_2
*I *2657:S I *D sky130_fd_sc_hd__mux2_2
*I *2654:S I *D sky130_fd_sc_hd__mux2_2
*I *2689:S I *D sky130_fd_sc_hd__mux2_2
*I *2549:X O *D sky130_fd_sc_hd__buf_8
*CAP
1 *2690:S 0.00126564
2 *2651:S 0
3 *2652:S 0.00015604
4 *2684:S 0
5 *2687:S 0.000188247
6 *2685:S 0
7 *2686:S 0.000293058
8 *2683:S 2.08101e-05
9 *2688:S 0
10 *2653:S 0
11 *2619:S 0
12 *2620:S 0
13 *2655:S 0.000341043
14 *2621:S 0.000104474
15 *2622:S 0
16 *2623:S 0.000183632
17 *2626:S 0.000154969
18 *2656:S 0.000456449
19 *2624:S 5.35989e-05
20 *2625:S 4.17676e-05
21 *2658:S 0
22 *2657:S 0
23 *2654:S 0
24 *2689:S 0
25 *2549:X 6.1665e-05
26 *238:267 0.000378393
27 *238:248 0.000392437
28 *238:228 0.000247732
29 *238:224 0.000310539
30 *238:213 0.000462396
31 *238:141 0.000718674
32 *238:139 0.000380072
33 *238:126 0.000546515
34 *238:124 0.000465374
35 *238:122 0.00076886
36 *238:100 0.000208541
37 *238:91 0.000223037
38 *238:78 0.000277254
39 *238:76 0.000402024
40 *238:74 0.000424064
41 *238:51 0.000476545
42 *238:45 0.000368468
43 *238:32 0.000646863
44 *238:22 0.000978698
45 *238:16 0.000625086
46 *238:12 0.00186327
47 *238:6 0.00306811
48 *2621:S *2694:A 8.65961e-05
49 *2621:S *306:20 3.00399e-05
50 *2623:S *2623:A0 9.50342e-06
51 *2623:S *2623:A1 7.23533e-05
52 *2623:S *2631:A 0
53 *2623:S *2658:A0 0.000194758
54 *2623:S *2696:A 0
55 *2624:S *2624:A0 0.000136884
56 *2624:S *2625:A1 1.52184e-05
57 *2625:S *2625:A1 0.000159048
58 *2625:S *2666:A 7.15196e-05
59 *2626:S *2696:A 0.000160635
60 *2652:S *2651:A0 3.59531e-06
61 *2652:S *2651:A1 3.86529e-05
62 *2652:S *2652:A0 0
63 *2652:S *281:12 2.26717e-05
64 *2655:S *309:16 0.000731058
65 *2656:S *2620:A0 0
66 *2656:S *2622:A0 0.000467273
67 *2656:S *2656:A0 4.99619e-05
68 *2656:S *2656:A1 3.00381e-05
69 *2656:S *2664:A 7.35813e-05
70 *2686:S *2683:A1 0.000120655
71 *2686:S *2686:A0 2.75145e-05
72 *2687:S *2685:A1 3.00381e-05
73 *2687:S *2687:A1 4.21973e-05
74 *2687:S *258:6 0.000540994
75 *2690:S *2690:A1 0.000122331
76 *238:22 *2688:A0 0.000148977
77 *238:22 *2691:A 0.000159847
78 *238:32 *2653:A0 0
79 *238:32 *2688:A0 0.00012657
80 *238:32 *2688:A1 4.05358e-05
81 *238:32 *2689:A0 0.000436979
82 *238:32 *2689:A1 2.92496e-05
83 *238:32 *2695:A 3.68769e-05
84 *238:45 *2653:A0 0.000182766
85 *238:45 *2689:A1 4.66108e-05
86 *238:45 *304:32 3.86529e-05
87 *238:51 *2653:A0 4.66108e-05
88 *238:51 *304:32 0.000237073
89 *238:74 *304:32 0.000288193
90 *238:76 *2620:A0 8.65905e-05
91 *238:76 *304:32 0.000169503
92 *238:78 *304:32 0.000416188
93 *238:91 *2658:A0 0.000313164
94 *238:91 *2658:A1 9.75391e-05
95 *238:91 *2665:A 1.91521e-05
96 *238:91 *304:32 0.000147256
97 *238:100 *2625:A1 8.49205e-05
98 *238:100 *2658:A0 2.8694e-05
99 *238:100 *2658:A1 2.49909e-05
100 *238:122 *2620:A0 0
101 *238:124 *2620:A0 0
102 *238:124 *2621:A0 2.96553e-05
103 *238:124 *2621:A1 0
104 *238:126 *2621:A0 4.62396e-05
105 *238:126 *2622:A0 8.53113e-06
106 *238:228 *2684:A0 1.47256e-05
107 *238:228 *258:6 0.000198939
108 *238:248 *2651:A0 0
109 *238:248 *2684:A0 6.44959e-05
110 *238:267 *2651:A0 0
111 *238:267 *279:8 8.65905e-05
112 *238:267 *281:12 0.000168243
113 spine_top_ow[3] *238:248 0.000136884
114 spine_top_ow[3] *238:267 5.5391e-05
115 spine_top_ow[8] *238:32 0.000226112
116 spine_top_ow[8] *238:45 5.06382e-06
117 *2395:A *238:248 0.000185398
118 *2406:A *238:248 0.000301191
119 *2406:A *238:267 3.25831e-05
120 *2407:TE_B *238:141 0.000121437
121 *2451:A *2690:S 0.00155481
122 *2503:A *2652:S 4.77757e-05
123 *2503:A *238:51 0.000194694
124 *2503:A *238:267 0.000273059
125 *2545:A *2690:S 0
126 *2546:A *2690:S 0
127 *2547:B *2690:S 0.00011686
128 *2547:B *238:12 0
129 *2548:A *238:12 0
130 *2570:DIODE *238:267 0
131 *2572:DIODE *238:16 8.49205e-05
132 *2572:DIODE *238:22 1.08758e-05
133 *2605:A *238:124 0
134 *2605:A *238:126 0
135 *2605:A *238:141 8.8266e-05
136 *2611:A *2656:S 0
137 *2612:A *2656:S 5.53249e-06
138 *2638:A *238:74 0.0001249
139 *2649:A *2652:S 3.09233e-05
140 *2667:A *238:12 5.72004e-05
141 *2669:A *2687:S 0.000124007
142 *2670:A *2687:S 0.000124007
143 *2674:A *238:213 6.10014e-05
144 *2674:A *238:224 0.000110315
145 *2674:A *238:228 4.82919e-05
146 *2674:A *238:248 1.07797e-05
147 *2675:A *2686:S 8.65961e-05
148 *2681:A *238:224 0
149 *23:13 *2624:S 4.11198e-05
150 *23:15 *2623:S 0
151 *23:59 *238:74 0.000417289
152 *23:59 *238:76 0.000225094
153 *23:59 *238:78 0.000422019
154 *23:59 *238:91 3.65279e-05
155 *23:59 *238:100 1.19928e-05
156 *25:36 *238:45 2.65814e-06
157 *98:26 *2690:S 0
158 *98:26 *238:12 0.0019667
159 *98:26 *238:213 1.07797e-05
160 *146:8 *238:124 0
161 *146:19 *238:122 0
162 *146:19 *238:124 0
163 *155:10 *238:248 0.000139933
164 *162:12 *2690:S 0
165 *170:10 *238:224 6.44134e-05
166 *170:10 *238:248 2.97004e-06
167 *170:19 *238:248 5.12017e-06
168 *170:48 *2687:S 4.99619e-05
169 *170:62 *238:45 0
170 *171:6 *2626:S 0.00012657
171 *171:15 *2626:S 2.05056e-05
172 *171:15 *238:141 0.000273835
173 *171:132 *238:141 0.000151672
174 *171:171 *2652:S 0
*RES
1 *2549:X *238:6 2.395 
2 *238:6 *238:12 42.86 
3 *238:12 *238:16 2.795 
4 *238:16 *238:22 9.195 
5 *238:22 *238:32 14.785 
6 *238:32 *2689:S 1.6 
7 *238:32 *238:45 8.23 
8 *238:45 *238:51 3.675 
9 *238:51 *2654:S 1.6 
10 *238:51 *238:74 8.625 
11 *238:74 *238:76 3.555 
12 *238:76 *238:78 6.66 
13 *238:78 *2657:S 1.6 
14 *238:78 *238:91 4.725 
15 *238:91 *2658:S 1.6 
16 *238:91 *238:100 2.19 
17 *238:100 *2625:S 3.085 
18 *238:100 *2624:S 7.235 
19 *238:76 *238:122 4.4 
20 *238:122 *238:124 4.44 
21 *238:124 *238:126 1.635 
22 *238:126 *2656:S 13.035 
23 *238:126 *238:139 2 
24 *238:139 *238:141 8.385 
25 *238:141 *2626:S 4.81 
26 *238:141 *2623:S 9.785 
27 *238:139 *2622:S 1.6 
28 *238:124 *2621:S 5.1 
29 *238:122 *2655:S 10.26 
30 *238:76 *2620:S 1.6 
31 *238:74 *2619:S 1.6 
32 *238:45 *2653:S 1.6 
33 *238:22 *2688:S 1.6 
34 *238:16 *2683:S 1.96 
35 *238:12 *238:213 1.635 
36 *238:213 *2686:S 8.19 
37 *238:213 *238:224 2.4 
38 *238:224 *238:228 3.83 
39 *238:228 *2685:S 1.6 
40 *238:228 *2687:S 8.05 
41 *238:224 *238:248 5.97 
42 *238:248 *2684:S 3.6 
43 *238:248 *238:267 8.09 
44 *238:267 *2652:S 8.45 
45 *238:267 *2651:S 1.6 
46 *238:6 *2690:S 29.39 
*END

*D_NET *239 0.00321632
*CONN
*I *2619:A0 I *D sky130_fd_sc_hd__mux2_2
*I *2603:X O *D sky130_fd_sc_hd__buf_2
*CAP
1 *2619:A0 0.00128766
2 *2603:X 0.00128766
3 *2619:A0 *2620:A0 0
4 *2619:A0 *2627:A 0
5 *2619:A0 *2628:A 0
6 *2619:A0 *2656:A0 0.000136398
7 *2619:A0 *2656:A1 0.000187766
8 *2619:A0 *304:32 0
9 spine_top_ow[14] *2619:A0 0
10 *2555:DIODE *2619:A0 1.83847e-05
11 *2584:DIODE *2619:A0 0
12 *2645:A *2619:A0 0
13 *2646:A *2619:A0 0.000298442
14 *84:22 *2619:A0 0
*RES
1 *2603:X *2619:A0 29.775 
*END

*D_NET *240 0.000452097
*CONN
*I *2621:A1 I *D sky130_fd_sc_hd__mux2_2
*I *2604:X O *D sky130_fd_sc_hd__buf_2
*CAP
1 *2621:A1 0.000106496
2 *2604:X 0.000106496
3 *2621:A1 *2620:A0 0.000159957
4 *2621:A1 *2621:A0 5.16348e-05
5 *2621:A1 *2693:A 2.75145e-05
6 *238:124 *2621:A1 0
*RES
1 *2604:X *2621:A1 9.54 
*END

*D_NET *241 0.00037497
*CONN
*I *2622:A1 I *D sky130_fd_sc_hd__mux2_2
*I *2605:X O *D sky130_fd_sc_hd__buf_2
*CAP
1 *2622:A1 0.00010633
2 *2605:X 0.00010633
3 *171:132 *2622:A1 0.000162311
*RES
1 *2605:X *2622:A1 4.685 
*END

*D_NET *242 0.000368076
*CONN
*I *2623:A1 I *D sky130_fd_sc_hd__mux2_2
*I *2606:X O *D sky130_fd_sc_hd__buf_2
*CAP
1 *2623:A1 9.24968e-05
2 *2606:X 9.24968e-05
3 *2623:A1 *2631:A 2.67022e-05
4 *2623:A1 *2691:A 8.40269e-05
5 *2623:S *2623:A1 7.23533e-05
*RES
1 *2606:X *2623:A1 8.865 
*END

*D_NET *243 0.000328934
*CONN
*I *2624:A1 I *D sky130_fd_sc_hd__mux2_2
*I *2607:X O *D sky130_fd_sc_hd__buf_2
*CAP
1 *2624:A1 0.000119358
2 *2607:X 0.000119358
3 *24:44 *2624:A1 9.02174e-05
*RES
1 *2607:X *2624:A1 4.685 
*END

*D_NET *244 0.000887542
*CONN
*I *2625:A1 I *D sky130_fd_sc_hd__mux2_2
*I *2608:X O *D sky130_fd_sc_hd__buf_2
*CAP
1 *2625:A1 0.000200646
2 *2608:X 0.000200646
3 *2625:A1 *2624:A0 5.12859e-05
4 *2625:A1 *2666:A 1.34594e-05
5 *2624:S *2625:A1 1.52184e-05
6 *2625:S *2625:A1 0.000159048
7 *23:13 *2625:A1 8.82909e-05
8 *23:15 *2625:A1 7.4027e-05
9 *238:100 *2625:A1 8.49205e-05
*RES
1 *2608:X *2625:A1 11.61 
*END

*D_NET *245 0.000136357
*CONN
*I *2626:A1 I *D sky130_fd_sc_hd__mux2_2
*I *2609:X O *D sky130_fd_sc_hd__buf_2
*CAP
1 *2626:A1 2.76428e-05
2 *2609:X 2.76428e-05
3 *2626:A1 *2624:A0 4.05358e-05
4 *23:15 *2626:A1 4.05358e-05
*RES
1 *2609:X *2626:A1 8.07 
*END

*D_NET *246 0.00267945
*CONN
*I *2620:A0 I *D sky130_fd_sc_hd__mux2_2
*I *2610:X O *D sky130_fd_sc_hd__buf_2
*CAP
1 *2620:A0 0.00102624
2 *2610:X 0.00102624
3 *2620:A0 *2621:A0 0.000242205
4 *2620:A0 *2622:A0 0
5 *2620:A0 *2628:A 5.16348e-05
6 *2620:A0 *2656:A0 0
7 *2620:A0 *2656:A1 0
8 *2620:A0 *304:32 8.65905e-05
9 *2612:A *2620:A0 0
10 *2619:A0 *2620:A0 0
11 *2621:A1 *2620:A0 0.000159957
12 *2656:S *2620:A0 0
13 *146:19 *2620:A0 0
14 *238:76 *2620:A0 8.65905e-05
15 *238:122 *2620:A0 0
16 *238:124 *2620:A0 0
*RES
1 *2610:X *2620:A0 25.95 
*END

*D_NET *247 0.00104562
*CONN
*I *2621:A0 I *D sky130_fd_sc_hd__mux2_2
*I *2611:X O *D sky130_fd_sc_hd__buf_2
*CAP
1 *2621:A0 0.000232488
2 *2611:X 0.000232488
3 *2621:A0 *2622:A0 0.000164294
4 *2621:A0 *306:20 4.66108e-05
5 *2620:A0 *2621:A0 0.000242205
6 *2621:A1 *2621:A0 5.16348e-05
7 *238:124 *2621:A0 2.96553e-05
8 *238:126 *2621:A0 4.62396e-05
*RES
1 *2611:X *2621:A0 13.365 
*END

*D_NET *248 0.0011162
*CONN
*I *2622:A0 I *D sky130_fd_sc_hd__mux2_2
*I *2612:X O *D sky130_fd_sc_hd__buf_2
*CAP
1 *2622:A0 0.000213904
2 *2612:X 0.000213904
3 *2622:A0 *2664:A 4.82919e-05
4 *2620:A0 *2622:A0 0
5 *2621:A0 *2622:A0 0.000164294
6 *2656:S *2622:A0 0.000467273
7 *238:126 *2622:A0 8.53113e-06
*RES
1 *2612:X *2622:A0 13.11 
*END

*D_NET *249 0.000808296
*CONN
*I *2623:A0 I *D sky130_fd_sc_hd__mux2_2
*I *2613:X O *D sky130_fd_sc_hd__buf_2
*CAP
1 *2623:A0 0.000286752
2 *2613:X 0.000286752
3 *2623:A0 *2658:A0 1.01661e-05
4 *2623:A0 *2664:A 0
5 *2614:A *2623:A0 9.66021e-05
6 *2615:A *2623:A0 0.00011852
7 *2623:S *2623:A0 9.50342e-06
8 *2648:A *2623:A0 0
9 *23:15 *2623:A0 0
*RES
1 *2613:X *2623:A0 12.105 
*END

*D_NET *250 0.00319424
*CONN
*I *2624:A0 I *D sky130_fd_sc_hd__mux2_2
*I *2614:X O *D sky130_fd_sc_hd__buf_2
*CAP
1 *2624:A0 0.0010111
2 *2614:X 0.0010111
3 *2624:A0 *2625:A0 0
4 *2624:A0 *2626:A0 0.000475322
5 pad_uio_oe_n[4] *2624:A0 0.000453621
6 *2566:DIODE *2624:A0 1.4399e-05
7 *2624:S *2624:A0 0.000136884
8 *2625:A1 *2624:A0 5.12859e-05
9 *2626:A1 *2624:A0 4.05358e-05
10 *23:13 *2624:A0 0
11 *23:15 *2624:A0 0
12 *24:13 *2624:A0 0
13 *24:15 *2624:A0 0
*RES
1 *2614:X *2624:A0 27.675 
*END

*D_NET *251 0.00244022
*CONN
*I *2625:A0 I *D sky130_fd_sc_hd__mux2_2
*I *2615:X O *D sky130_fd_sc_hd__buf_2
*CAP
1 *2625:A0 0.000922668
2 *2615:X 0.000922668
3 *2625:A0 *2634:A 0.000206123
4 pad_uio_oe_n[4] *2625:A0 0.000339553
5 *2616:A *2625:A0 4.92062e-05
6 *2624:A0 *2625:A0 0
7 *24:15 *2625:A0 0
*RES
1 *2615:X *2625:A0 24.285 
*END

*D_NET *252 0.000947824
*CONN
*I *2626:A0 I *D sky130_fd_sc_hd__mux2_2
*I *2616:X O *D sky130_fd_sc_hd__buf_2
*CAP
1 *2626:A0 0.000139205
2 *2616:X 0.000139205
3 *2624:A0 *2626:A0 0.000475322
4 *23:15 *2626:A0 0.000194092
*RES
1 *2616:X *2626:A0 12.66 
*END

*D_NET *253 0.00032213
*CONN
*I *2619:A1 I *D sky130_fd_sc_hd__mux2_2
*I *2617:X O *D sky130_fd_sc_hd__buf_2
*CAP
1 *2619:A1 0.00011777
2 *2617:X 0.00011777
3 *2619:A1 *2620:A1 0
4 *2638:A *2619:A1 0
5 *170:76 *2619:A1 8.65905e-05
*RES
1 *2617:X *2619:A1 8.865 
*END

*D_NET *254 0.000707504
*CONN
*I *2620:A1 I *D sky130_fd_sc_hd__mux2_2
*I *2618:X O *D sky130_fd_sc_hd__buf_2
*CAP
1 *2620:A1 0.000271137
2 *2618:X 0.000271137
3 *2620:A1 *304:32 0.00012657
4 *2620:A1 *309:16 0
5 *2619:A1 *2620:A1 0
6 *24:44 *2620:A1 0
7 *144:22 *2620:A1 3.86607e-05
8 *146:19 *2620:A1 0
*RES
1 *2618:X *2620:A1 11.25 
*END

*D_NET *255 0.0234515
*CONN
*I *2627:A I *D sky130_fd_sc_hd__bufinv_8
*I *2619:X O *D sky130_fd_sc_hd__mux2_2
*CAP
1 *2627:A 0.00493897
2 *2619:X 0.00493897
3 *2627:A *2628:A 0.00811422
4 *2627:A *2659:A 0.000191162
5 *2627:A *2661:A 0.000119831
6 *2627:A *2662:A 0.000109836
7 *2627:A *279:8 0.000208687
8 *2627:A *281:12 0.000322656
9 *2627:A *304:32 1.88602e-05
10 spine_top_ow[3] *2627:A 4.5387e-05
11 spine_top_ow[4] *2627:A 2.47368e-05
12 spine_top_ow[5] *2627:A 2.79364e-05
13 spine_top_ow[6] *2627:A 5.56871e-05
14 *2471:A *2627:A 0.000110525
15 *2487:A *2627:A 0.000262387
16 *2489:A *2627:A 0
17 *2491:A *2627:A 0.00336169
18 *2503:A *2627:A 0.000119831
19 *2619:A0 *2627:A 0
20 *19:9 *2627:A 5.91244e-05
21 *20:11 *2627:A 0.000421033
*RES
1 *2619:X *2627:A 26.4976 
*END

*D_NET *256 0.0209034
*CONN
*I *2628:A I *D sky130_fd_sc_hd__bufinv_8
*I *2620:X O *D sky130_fd_sc_hd__mux2_2
*CAP
1 *2628:A 0.00528896
2 *2620:X 0.00528896
3 *2628:A *2660:A 0
4 *2628:A *282:8 0.000290214
5 pad_uio_oe_n[2] *2628:A 8.96954e-05
6 pad_uio_oe_n[3] *2628:A 0
7 spine_top_iw[13] *2628:A 0.000163067
8 spine_top_iw[17] *2628:A 0
9 spine_top_iw[19] *2628:A 4.3249e-05
10 spine_top_iw[21] *2628:A 0
11 spine_top_iw[22] *2628:A 0
12 spine_top_iw[24] *2628:A 0
13 spine_top_iw[25] *2628:A 0
14 spine_top_ow[13] *2628:A 0
15 spine_top_ow[15] *2628:A 0
16 spine_top_ow[1] *2628:A 0
17 spine_top_ow[2] *2628:A 0
18 spine_top_ow[7] *2628:A 0
19 spine_top_ow[8] *2628:A 0
20 spine_top_ow[9] *2628:A 0
21 *2471:A *2628:A 0.000109836
22 *2487:A *2628:A 0.000388417
23 *2489:A *2628:A 0.000955283
24 *2493:A *2628:A 0.000119831
25 *2619:A0 *2628:A 0
26 *2620:A0 *2628:A 5.16348e-05
27 *2627:A *2628:A 0.00811422
28 *146:19 *2628:A 0
*RES
1 *2620:X *2628:A 28.6634 
*END

*D_NET *257 0.0122064
*CONN
*I *2629:A I *D sky130_fd_sc_hd__bufinv_8
*I *2621:X O *D sky130_fd_sc_hd__mux2_2
*CAP
1 *2629:A 0.000472262
2 *2621:X 0
3 *257:6 0.00485562
4 *257:4 0.00438336
5 *257:6 *306:20 0.000549221
6 spine_top_iw[2] *2629:A 0.000185398
7 spine_top_iw[3] *2629:A 0.000178504
8 *2414:A *257:6 1.91597e-05
9 *2495:A *2629:A 0.00030984
10 *2506:A *257:6 2.75145e-05
11 *155:10 *257:6 0.000121437
12 *156:28 *257:6 4.82919e-05
13 *170:23 *257:6 4.21973e-05
14 *171:167 *257:6 0.000272973
15 *171:212 *257:6 0.000570056
16 *171:219 *257:6 4.82919e-05
17 *171:228 *257:6 0.000122325
*RES
1 *2621:X *257:4 1.6 
2 *257:4 *257:6 64.275 
3 *257:6 *2629:A 16.28 
*END

*D_NET *258 0.0131912
*CONN
*I *2630:A I *D sky130_fd_sc_hd__bufinv_8
*I *2622:X O *D sky130_fd_sc_hd__mux2_2
*CAP
1 *2630:A 0.000149115
2 *2622:X 0
3 *258:6 0.00421301
4 *258:4 0.0040639
5 *2361:A *258:6 2.68526e-05
6 *2394:A *258:6 0.000312735
7 *2399:TE_B *258:6 0.000693441
8 *2479:A *258:6 0.00230932
9 *2479:B *258:6 3.23663e-05
10 *2687:S *258:6 0.000540994
11 *22:30 *2630:A 0
12 *147:8 *258:6 2.77283e-05
13 *160:10 *258:6 4.66108e-05
14 *170:48 *258:6 0.000481556
15 *171:132 *258:6 4.85494e-05
16 *171:139 *258:6 4.60584e-05
17 *238:228 *258:6 0.000198939
*RES
1 *2622:X *258:4 1.6 
2 *258:4 *258:6 68.76 
3 *258:6 *2630:A 8 
*END

*D_NET *259 0.00044818
*CONN
*I *2631:A I *D sky130_fd_sc_hd__bufinv_8
*I *2623:X O *D sky130_fd_sc_hd__mux2_2
*CAP
1 *2631:A 0.000116581
2 *2623:X 0.000116581
3 *2631:A *2664:A 2.55324e-05
4 *2631:A *2696:A 0.000162784
5 *2623:A1 *2631:A 2.67022e-05
6 *2623:S *2631:A 0
*RES
1 *2623:X *2631:A 9.4125 
*END

*D_NET *260 0.00100079
*CONN
*I *2632:A I *D sky130_fd_sc_hd__bufinv_8
*I *2624:X O *D sky130_fd_sc_hd__mux2_2
*CAP
1 *2632:A 0.000273106
2 *2624:X 0.000273106
3 *2632:A *2666:A 0.000140628
4 *2632:A *2692:A 0.000313946
5 *24:13 *2632:A 0
*RES
1 *2624:X *2632:A 11.7 
*END

*D_NET *261 0.00102207
*CONN
*I *2633:A I *D sky130_fd_sc_hd__bufinv_8
*I *2625:X O *D sky130_fd_sc_hd__mux2_2
*CAP
1 *2633:A 0.000479679
2 *2625:X 0.000479679
3 *2633:A *2666:A 6.27139e-05
*RES
1 *2625:X *2633:A 13.1025 
*END

*D_NET *262 0.00207236
*CONN
*I *2634:A I *D sky130_fd_sc_hd__bufinv_8
*I *2626:X O *D sky130_fd_sc_hd__mux2_2
*CAP
1 *2634:A 0.000393122
2 *2626:X 0.000393122
3 *2634:A *2694:A 0.000873872
4 pad_uio_oe_n[4] *2634:A 0.000206123
5 *2625:A0 *2634:A 0.000206123
*RES
1 *2626:X *2634:A 17.64 
*END

*D_NET *263 0.00261415
*CONN
*I *2651:A0 I *D sky130_fd_sc_hd__mux2_2
*I *2635:Y O *D sky130_fd_sc_hd__inv_2
*CAP
1 *2651:A0 0.000775096
2 *2635:Y 0.000775096
3 *2651:A0 *2652:A0 0
4 *2651:A0 *2685:A0 0.000117832
5 *2651:A0 *2685:A1 9.34333e-05
6 *2651:A0 *2686:A0 0
7 *2651:A0 *2686:A1 0
8 *2651:A0 *305:10 0
9 spine_top_ow[4] *2651:A0 0.000142994
10 spine_top_ow[5] *2651:A0 0
11 *2652:S *2651:A0 3.59531e-06
12 *2669:A *2651:A0 4.7043e-05
13 *2674:A *2651:A0 0
14 *2675:A *2651:A0 0.000473655
15 *2676:A *2651:A0 0
16 *156:28 *2651:A0 0.000185405
17 *157:23 *2651:A0 0
18 *238:248 *2651:A0 0
19 *238:267 *2651:A0 0
*RES
1 *2635:Y *2651:A0 23.31 
*END

*D_NET *264 0.000687454
*CONN
*I *2653:A1 I *D sky130_fd_sc_hd__mux2_2
*I *2636:Y O *D sky130_fd_sc_hd__inv_2
*CAP
1 *2653:A1 0.000194013
2 *2636:Y 0.000194013
3 *2653:A1 *2654:A1 2.87867e-05
4 *2653:A1 *2689:A1 7.23602e-05
5 *2653:A1 *282:8 0.000156213
6 *2503:A *2653:A1 4.2068e-05
*RES
1 *2636:Y *2653:A1 10.245 
*END

*D_NET *265 0.000129086
*CONN
*I *2654:A1 I *D sky130_fd_sc_hd__mux2_2
*I *2637:Y O *D sky130_fd_sc_hd__inv_2
*CAP
1 *2654:A1 2.98816e-05
2 *2637:Y 2.98816e-05
3 *2653:A1 *2654:A1 2.87867e-05
4 *23:59 *2654:A1 4.05358e-05
*RES
1 *2637:Y *2654:A1 8.07 
*END

*D_NET *266 0.000750078
*CONN
*I *2655:A1 I *D sky130_fd_sc_hd__mux2_2
*I *2638:Y O *D sky130_fd_sc_hd__inv_2
*CAP
1 *2655:A1 0.000257436
2 *2638:Y 0.000257436
3 *2655:A1 *2654:A0 0
4 *2655:A1 *2655:A0 0.000154144
5 *2655:A1 *283:16 3.50033e-05
6 *2655:A1 *309:16 4.60584e-05
*RES
1 *2638:Y *2655:A1 11.175 
*END

*D_NET *267 0.000638555
*CONN
*I *2656:A1 I *D sky130_fd_sc_hd__mux2_2
*I *2639:Y O *D sky130_fd_sc_hd__inv_2
*CAP
1 *2656:A1 0.000165942
2 *2639:Y 0.000165942
3 *2656:A1 *2656:A0 8.88663e-05
4 *2619:A0 *2656:A1 0.000187766
5 *2620:A0 *2656:A1 0
6 *2656:S *2656:A1 3.00381e-05
*RES
1 *2639:Y *2656:A1 10.485 
*END

*D_NET *268 0.00114973
*CONN
*I *2657:A1 I *D sky130_fd_sc_hd__mux2_2
*I *2640:Y O *D sky130_fd_sc_hd__inv_2
*CAP
1 *2657:A1 0.000356701
2 *2640:Y 0.000356701
3 *2657:A1 *304:32 0.000387991
4 *148:21 *2657:A1 4.83411e-05
5 *170:135 *2657:A1 0
*RES
1 *2640:Y *2657:A1 12.39 
*END

*D_NET *269 0.00121199
*CONN
*I *2658:A1 I *D sky130_fd_sc_hd__mux2_2
*I *2641:Y O *D sky130_fd_sc_hd__inv_2
*CAP
1 *2658:A1 0.000347725
2 *2641:Y 0.000347725
3 *2658:A1 *2665:A 9.57985e-06
4 *2658:A1 *304:32 0.00020422
5 *2409:A *2658:A1 4.76659e-05
6 *2409:TE_B *2658:A1 0
7 *143:10 *2658:A1 7.4027e-05
8 *171:47 *2658:A1 4.19967e-05
9 *171:80 *2658:A1 1.65192e-05
10 *238:91 *2658:A1 9.75391e-05
11 *238:100 *2658:A1 2.49909e-05
*RES
1 *2641:Y *2658:A1 13.32 
*END

*D_NET *270 0.00346506
*CONN
*I *2652:A0 I *D sky130_fd_sc_hd__mux2_2
*I *2642:Y O *D sky130_fd_sc_hd__inv_2
*CAP
1 *2652:A0 0.000988004
2 *2642:Y 0.000988004
3 *2652:A0 *2651:A1 4.82919e-05
4 *2652:A0 *2652:A1 0.000160488
5 *2652:A0 *2686:A0 0
6 *2652:A0 *2686:A1 8.7974e-05
7 *2652:A0 *2687:A0 0
8 *2652:A0 *2688:A0 0
9 *2652:A0 *2691:A 9.54399e-05
10 *2652:A0 *305:10 0
11 spine_top_ow[5] *2652:A0 5.66945e-05
12 *2501:A *2652:A0 5.486e-05
13 *2575:DIODE *2652:A0 0.00013317
14 *2642:A *2652:A0 2.11084e-05
15 *2649:A *2652:A0 0.000160729
16 *2650:A *2652:A0 8.77516e-05
17 *2651:A0 *2652:A0 0
18 *2652:S *2652:A0 0
19 *2670:A *2652:A0 9.22128e-05
20 *2676:A *2652:A0 0
21 *2677:A *2652:A0 6.74079e-05
22 *157:23 *2652:A0 6.95422e-05
23 *171:171 *2652:A0 0.00035338
*RES
1 *2642:Y *2652:A0 28.995 
*END

*D_NET *271 0.00281258
*CONN
*I *2653:A0 I *D sky130_fd_sc_hd__mux2_2
*I *2643:Y O *D sky130_fd_sc_hd__inv_2
*CAP
1 *2653:A0 0.000798522
2 *2643:Y 0.000798522
3 *2653:A0 *2687:A0 0
4 *2653:A0 *2688:A0 0.000130547
5 *2653:A0 *2688:A1 3.86529e-05
6 *2653:A0 *2689:A0 0
7 *2653:A0 *2695:A 9.54469e-05
8 *2653:A0 *304:32 8.72377e-05
9 *2653:A0 *306:20 4.83241e-05
10 spine_top_ow[8] *2653:A0 0.000342084
11 *2503:A *2653:A0 2.16917e-05
12 *2642:A *2653:A0 4.70343e-05
13 *2677:A *2653:A0 0
14 *2679:A *2653:A0 7.81954e-05
15 *160:10 *2653:A0 0
16 *170:62 *2653:A0 0
17 *171:156 *2653:A0 9.69431e-05
18 *238:32 *2653:A0 0
19 *238:45 *2653:A0 0.000182766
20 *238:51 *2653:A0 4.66108e-05
*RES
1 *2643:Y *2653:A0 25.8 
*END

*D_NET *272 0.00291799
*CONN
*I *2654:A0 I *D sky130_fd_sc_hd__mux2_2
*I *2644:Y O *D sky130_fd_sc_hd__inv_2
*CAP
1 *2654:A0 0.000560209
2 *2644:Y 0.000560209
3 *2654:A0 *2655:A0 0
4 *2654:A0 *2689:A0 0.00114905
5 *2654:A0 *2689:A1 0
6 *2654:A0 *283:16 0
7 *2655:A1 *2654:A0 0
8 *23:59 *2654:A0 3.59531e-06
9 *25:36 *2654:A0 3.98757e-05
10 *160:10 *2654:A0 0.000605057
*RES
1 *2644:Y *2654:A0 22.86 
*END

*D_NET *273 0.00201573
*CONN
*I *2655:A0 I *D sky130_fd_sc_hd__mux2_2
*I *2645:Y O *D sky130_fd_sc_hd__inv_2
*CAP
1 *2655:A0 0.000791217
2 *2645:Y 0.000791217
3 *2655:A0 *283:16 0.00011852
4 *2655:A0 *309:16 0.00016063
5 *2584:DIODE *2655:A0 0
6 *2654:A0 *2655:A0 0
7 *2655:A1 *2655:A0 0.000154144
8 *160:10 *2655:A0 0
*RES
1 *2645:Y *2655:A0 20.46 
*END

*D_NET *274 0.000673044
*CONN
*I *2656:A0 I *D sky130_fd_sc_hd__mux2_2
*I *2646:Y O *D sky130_fd_sc_hd__inv_2
*CAP
1 *2656:A0 0.000198909
2 *2646:Y 0.000198909
3 *2619:A0 *2656:A0 0.000136398
4 *2620:A0 *2656:A0 0
5 *2656:A1 *2656:A0 8.88663e-05
6 *2656:S *2656:A0 4.99619e-05
*RES
1 *2646:Y *2656:A0 11.67 
*END

*D_NET *275 0.00317612
*CONN
*I *2657:A0 I *D sky130_fd_sc_hd__mux2_2
*I *2647:Y O *D sky130_fd_sc_hd__inv_2
*CAP
1 *2657:A0 0.000550818
2 *2647:Y 0.000550818
3 *2657:A0 *2658:A0 0.000964389
4 *2657:A0 *2696:A 0.000356395
5 *2407:TE_B *2657:A0 0.000179015
6 *2606:A *2657:A0 0.000139252
7 *170:99 *2657:A0 0.000352775
8 *171:47 *2657:A0 8.26614e-05
*RES
1 *2647:Y *2657:A0 21.99 
*END

*D_NET *276 0.00311118
*CONN
*I *2658:A0 I *D sky130_fd_sc_hd__mux2_2
*I *2648:Y O *D sky130_fd_sc_hd__inv_2
*CAP
1 *2658:A0 0.000603328
2 *2648:Y 0.000603328
3 *2658:A0 *2664:A 4.44481e-05
4 spine_top_ow[24] *2658:A0 0
5 *2608:A *2658:A0 0
6 *2623:A0 *2658:A0 1.01661e-05
7 *2623:S *2658:A0 0.000194758
8 *2648:A *2658:A0 0
9 *2657:A0 *2658:A0 0.000964389
10 *23:15 *2658:A0 0
11 *23:59 *2658:A0 0.000348899
12 *150:8 *2658:A0 0
13 *152:20 *2658:A0 0
14 *238:91 *2658:A0 0.000313164
15 *238:100 *2658:A0 2.8694e-05
*RES
1 *2648:Y *2658:A0 23.565 
*END

*D_NET *277 0.000721451
*CONN
*I *2651:A1 I *D sky130_fd_sc_hd__mux2_2
*I *2649:Y O *D sky130_fd_sc_hd__inv_2
*CAP
1 *2651:A1 0.000225396
2 *2649:Y 0.000225396
3 *2651:A1 *280:12 0.000118716
4 *2649:A *2651:A1 6.49981e-05
5 *2652:A0 *2651:A1 4.82919e-05
6 *2652:S *2651:A1 3.86529e-05
*RES
1 *2649:Y *2651:A1 10.59 
*END

*D_NET *278 0.0003753
*CONN
*I *2652:A1 I *D sky130_fd_sc_hd__mux2_2
*I *2650:Y O *D sky130_fd_sc_hd__inv_2
*CAP
1 *2652:A1 0.000107406
2 *2650:Y 0.000107406
3 *2652:A0 *2652:A1 0.000160488
*RES
1 *2650:Y *2652:A1 4.685 
*END

*D_NET *279 0.0140004
*CONN
*I *2659:A I *D sky130_fd_sc_hd__bufinv_8
*I *2651:X O *D sky130_fd_sc_hd__mux2_2
*CAP
1 *2659:A 0.00316631
2 *2651:X 0.000573284
3 *279:8 0.0037396
4 *2659:A *2662:A 0.00181326
5 *279:8 *2662:A 0.000447028
6 *279:8 *281:12 0.00216977
7 *279:8 *282:8 0.000435925
8 *2471:A *2659:A 0.000423036
9 *2489:A *2659:A 0
10 *2491:A *2659:A 0.000109836
11 *2495:B *279:8 0.000145184
12 *2503:A *279:8 0.000367909
13 *2503:B *279:8 0.000122801
14 *2627:A *2659:A 0.000191162
15 *2627:A *279:8 0.000208687
16 *238:267 *279:8 8.65905e-05
*RES
1 *2651:X *279:8 25.3525 
2 *279:8 *2659:A 48.5525 
*END

*D_NET *280 0.011658
*CONN
*I *2660:A I *D sky130_fd_sc_hd__bufinv_8
*I *2652:X O *D sky130_fd_sc_hd__mux2_2
*CAP
1 *2660:A 0.000237384
2 *2652:X 0.000603281
3 *280:14 0.00279432
4 *280:12 0.00316022
5 pad_uio_oe_n[2] *2660:A 0
6 pad_uio_out[3] *2660:A 0
7 *2469:A *280:14 0.00112176
8 *2472:A *280:14 0.000122699
9 *2490:A *280:14 0.000125262
10 *2497:A *280:14 2.61654e-05
11 *2500:A *280:14 8.65961e-05
12 *2501:A *280:12 0.000261056
13 *2628:A *2660:A 0
14 *2649:A *280:12 8.04121e-05
15 *2651:A1 *280:12 0.000118716
16 *23:59 *280:12 7.67415e-06
17 *203:38 *280:12 4.77757e-05
18 *203:45 *280:12 0.000223822
19 *203:60 *280:12 0.000113237
20 *203:60 *280:14 0.000371615
21 *203:82 *280:14 0.000660264
22 *203:91 *280:14 0.00027653
23 *203:102 *280:14 0.000275037
24 *203:109 *280:14 0.000110214
25 *203:192 *280:14 0.000162975
26 *203:205 *280:14 0.000405118
27 *203:212 *280:14 0.000265859
*RES
1 *2652:X *280:12 16.8575 
2 *280:12 *280:14 49.095 
3 *280:14 *2660:A 9.275 
*END

*D_NET *281 0.0150474
*CONN
*I *2661:A I *D sky130_fd_sc_hd__bufinv_8
*I *2653:X O *D sky130_fd_sc_hd__mux2_2
*CAP
1 *2661:A 0.00128957
2 *2653:X 0.00189082
3 *281:12 0.00318039
4 *2661:A *2662:A 0.00326211
5 *2661:A *2663:A 0
6 pad_uio_out[4] *2661:A 0
7 spine_top_iw[19] *281:12 0
8 *2471:A *2661:A 0.00144541
9 *2487:A *2661:A 4.30837e-05
10 *2493:A *2661:A 0.000958088
11 *2495:A *281:12 2.41376e-05
12 *2503:A *281:12 0.000150629
13 *2627:A *2661:A 0.000119831
14 *2627:A *281:12 0.000322656
15 *2652:S *281:12 2.26717e-05
16 *22:30 *2661:A 0
17 *238:267 *281:12 0.000168243
18 *279:8 *281:12 0.00216977
*RES
1 *2653:X *281:12 32.105 
2 *281:12 *2661:A 45.935 
*END

*D_NET *282 0.0135303
*CONN
*I *2662:A I *D sky130_fd_sc_hd__bufinv_8
*I *2654:X O *D sky130_fd_sc_hd__mux2_2
*CAP
1 *2662:A 0.000908475
2 *2654:X 0.00146158
3 *282:8 0.00237006
4 pad_uio_oe_n[3] *2662:A 0
5 *2471:A *2662:A 0.000131791
6 *2495:B *282:8 0.000239813
7 *2503:A *282:8 0.00173624
8 *2503:B *282:8 4.40028e-05
9 *2504:A *282:8 4.89295e-05
10 *2627:A *2662:A 0.000109836
11 *2628:A *282:8 0.000290214
12 *2653:A1 *282:8 0.000156213
13 *2659:A *2662:A 0.00181326
14 *2661:A *2662:A 0.00326211
15 *22:30 *2662:A 7.48816e-05
16 *279:8 *2662:A 0.000447028
17 *279:8 *282:8 0.000435925
*RES
1 *2654:X *282:8 30.5425 
2 *282:8 *2662:A 42.23 
*END

*D_NET *283 0.0119697
*CONN
*I *2663:A I *D sky130_fd_sc_hd__bufinv_8
*I *2655:X O *D sky130_fd_sc_hd__mux2_2
*CAP
1 *2663:A 0.0025997
2 *2655:X 0.00260638
3 *283:16 0.00520608
4 *283:16 *2685:A1 3.64722e-05
5 *283:16 *2693:A 0.000564609
6 *283:16 *309:16 4.80285e-05
7 spine_top_iw[2] *2663:A 0.000560094
8 *2487:A *2663:A 0
9 *2513:A *2663:A 2.75229e-05
10 *2571:DIODE *283:16 8.23457e-05
11 *2654:A0 *283:16 0
12 *2655:A0 *283:16 0.00011852
13 *2655:A1 *283:16 3.50033e-05
14 *2661:A *2663:A 0
15 *25:36 *283:16 8.49205e-05
*RES
1 *2655:X *283:16 44.3675 
2 *283:16 *2663:A 36.7475 
*END

*D_NET *284 0.00242929
*CONN
*I *2664:A I *D sky130_fd_sc_hd__bufinv_8
*I *2656:X O *D sky130_fd_sc_hd__mux2_2
*CAP
1 *2664:A 0.000860115
2 *2656:X 0.000860115
3 *2664:A *2696:A 0.000328984
4 *2622:A0 *2664:A 4.82919e-05
5 *2623:A0 *2664:A 0
6 *2631:A *2664:A 2.55324e-05
7 *2648:A *2664:A 0.000188226
8 *2656:S *2664:A 7.35813e-05
9 *2658:A0 *2664:A 4.44481e-05
*RES
1 *2656:X *2664:A 21.93 
*END

*D_NET *285 0.00235169
*CONN
*I *2665:A I *D sky130_fd_sc_hd__bufinv_8
*I *2657:X O *D sky130_fd_sc_hd__mux2_2
*CAP
1 *2665:A 0.000997816
2 *2657:X 0.000997816
3 *2665:A *304:32 6.92175e-05
4 spine_top_ow[23] *2665:A 6.63219e-06
5 *2409:A *2665:A 0.000177897
6 *2592:DIODE *2665:A 7.35813e-05
7 *2658:A1 *2665:A 9.57985e-06
8 *143:10 *2665:A 0
9 *150:8 *2665:A 0
10 *171:47 *2665:A 0
11 *238:91 *2665:A 1.91521e-05
*RES
1 *2657:X *2665:A 23.4525 
*END

*D_NET *286 0.00254901
*CONN
*I *2666:A I *D sky130_fd_sc_hd__bufinv_8
*I *2658:X O *D sky130_fd_sc_hd__mux2_2
*CAP
1 *2666:A 0.000824993
2 *2658:X 0.000824993
3 *2666:A *2697:A 0.000610706
4 pad_uio_oe_n[5] *2666:A 0
5 *2625:A1 *2666:A 1.34594e-05
6 *2625:S *2666:A 7.15196e-05
7 *2632:A *2666:A 0.000140628
8 *2633:A *2666:A 6.27139e-05
9 *24:13 *2666:A 0
10 *24:15 *2666:A 0
*RES
1 *2658:X *2666:A 22.455 
*END

*D_NET *287 0.000945095
*CONN
*I *2683:A0 I *D sky130_fd_sc_hd__mux2_2
*I *2667:Y O *D sky130_fd_sc_hd__inv_2
*CAP
1 *2683:A0 0.000261051
2 *2667:Y 0.000261051
3 *2675:A *2683:A0 0.00012455
4 *98:26 *2683:A0 0.000298442
*RES
1 *2667:Y *2683:A0 12.45 
*END

*D_NET *288 0.000817776
*CONN
*I *2685:A1 I *D sky130_fd_sc_hd__mux2_2
*I *2668:Y O *D sky130_fd_sc_hd__inv_2
*CAP
1 *2685:A1 0.000227236
2 *2668:Y 0.000227236
3 *2685:A1 *2684:A0 0.000131
4 *2651:A0 *2685:A1 9.34333e-05
5 *2687:S *2685:A1 3.00381e-05
6 *156:28 *2685:A1 7.23602e-05
7 *283:16 *2685:A1 3.64722e-05
*RES
1 *2668:Y *2685:A1 11.7 
*END

*D_NET *289 0.000272648
*CONN
*I *2686:A1 I *D sky130_fd_sc_hd__mux2_2
*I *2669:Y O *D sky130_fd_sc_hd__inv_2
*CAP
1 *2686:A1 7.07135e-05
2 *2669:Y 7.07135e-05
3 *2686:A1 *2686:A0 3.05295e-05
4 *2686:A1 *2691:A 8.53113e-06
5 *2686:A1 *305:10 4.18603e-06
6 *2651:A0 *2686:A1 0
7 *2652:A0 *2686:A1 8.7974e-05
*RES
1 *2669:Y *2686:A1 9.09 
*END

*D_NET *290 0.000299608
*CONN
*I *2687:A1 I *D sky130_fd_sc_hd__mux2_2
*I *2670:Y O *D sky130_fd_sc_hd__inv_2
*CAP
1 *2687:A1 8.54102e-05
2 *2670:Y 8.54102e-05
3 *2687:S *2687:A1 4.21973e-05
4 *170:48 *2687:A1 8.65905e-05
*RES
1 *2670:Y *2687:A1 4.685 
*END

*D_NET *291 0.000518201
*CONN
*I *2688:A1 I *D sky130_fd_sc_hd__mux2_2
*I *2671:Y O *D sky130_fd_sc_hd__inv_2
*CAP
1 *2688:A1 0.000139186
2 *2671:Y 0.000139186
3 *2688:A1 *2691:A 0.000160641
4 *2653:A0 *2688:A1 3.86529e-05
5 *238:32 *2688:A1 4.05358e-05
*RES
1 *2671:Y *2688:A1 9.555 
*END

*D_NET *292 0.00189915
*CONN
*I *2689:A1 I *D sky130_fd_sc_hd__mux2_2
*I *2672:Y O *D sky130_fd_sc_hd__inv_2
*CAP
1 *2689:A1 0.000416527
2 *2672:Y 0.000416527
3 spine_top_ow[8] *2689:A1 0.000510598
4 *2396:TE_B *2689:A1 0.000195859
5 *2636:A *2689:A1 7.55313e-05
6 *2653:A1 *2689:A1 7.23602e-05
7 *2654:A0 *2689:A1 0
8 *23:59 *2689:A1 0
9 *25:36 *2689:A1 0.000135884
10 *238:32 *2689:A1 2.92496e-05
11 *238:45 *2689:A1 4.66108e-05
*RES
1 *2672:Y *2689:A1 16.05 
*END

*D_NET *293 0.000782151
*CONN
*I *2690:A1 I *D sky130_fd_sc_hd__mux2_2
*I *2673:Y O *D sky130_fd_sc_hd__inv_2
*CAP
1 *2690:A1 0.00024997
2 *2673:Y 0.00024997
3 *2451:A *2690:A1 2.16833e-05
4 *2552:DIODE *2690:A1 0.000138196
5 *2690:S *2690:A1 0.000122331
6 *81:22 *2690:A1 0
*RES
1 *2673:Y *2690:A1 11.595 
*END

*D_NET *294 0.00087673
*CONN
*I *2684:A0 I *D sky130_fd_sc_hd__mux2_2
*I *2674:Y O *D sky130_fd_sc_hd__inv_2
*CAP
1 *2684:A0 0.000211494
2 *2674:Y 0.000211494
3 spine_top_ow[3] *2684:A0 7.26629e-05
4 spine_top_ow[4] *2684:A0 3.89528e-05
5 *2674:A *2684:A0 5.83121e-06
6 *2685:A1 *2684:A0 0.000131
7 *155:10 *2684:A0 7.81876e-05
8 *156:28 *2684:A0 4.78859e-05
9 *238:228 *2684:A0 1.47256e-05
10 *238:248 *2684:A0 6.44959e-05
*RES
1 *2674:Y *2684:A0 12.855 
*END

*D_NET *295 0.000335265
*CONN
*I *2685:A0 I *D sky130_fd_sc_hd__mux2_2
*I *2675:Y O *D sky130_fd_sc_hd__inv_2
*CAP
1 *2685:A0 9.9524e-05
2 *2675:Y 9.9524e-05
3 *2651:A0 *2685:A0 0.000117832
4 *2674:A *2685:A0 0
5 *2675:A *2685:A0 1.83847e-05
*RES
1 *2675:Y *2685:A0 9.03 
*END

*D_NET *296 0.00061368
*CONN
*I *2686:A0 I *D sky130_fd_sc_hd__mux2_2
*I *2676:Y O *D sky130_fd_sc_hd__inv_2
*CAP
1 *2686:A0 0.000261911
2 *2676:Y 0.000261911
3 *2686:A0 *2691:A 3.18137e-05
4 *2651:A0 *2686:A0 0
5 *2652:A0 *2686:A0 0
6 *2686:A1 *2686:A0 3.05295e-05
7 *2686:S *2686:A0 2.75145e-05
*RES
1 *2676:Y *2686:A0 11.67 
*END

*D_NET *297 0.00105891
*CONN
*I *2687:A0 I *D sky130_fd_sc_hd__mux2_2
*I *2677:Y O *D sky130_fd_sc_hd__inv_2
*CAP
1 *2687:A0 0.000369632
2 *2677:Y 0.000369632
3 *2687:A0 *2688:A0 0.000141599
4 *2687:A0 *306:20 0.000114492
5 *2575:DIODE *2687:A0 6.35535e-05
6 *2652:A0 *2687:A0 0
7 *2653:A0 *2687:A0 0
*RES
1 *2677:Y *2687:A0 13.8 
*END

*D_NET *298 0.00103091
*CONN
*I *2688:A0 I *D sky130_fd_sc_hd__mux2_2
*I *2678:Y O *D sky130_fd_sc_hd__inv_2
*CAP
1 *2688:A0 0.000241607
2 *2678:Y 0.000241607
3 *2652:A0 *2688:A0 0
4 *2653:A0 *2688:A0 0.000130547
5 *2677:A *2688:A0 0
6 *2687:A0 *2688:A0 0.000141599
7 *238:22 *2688:A0 0.000148977
8 *238:32 *2688:A0 0.00012657
*RES
1 *2678:Y *2688:A0 13.395 
*END

*D_NET *299 0.00292639
*CONN
*I *2689:A0 I *D sky130_fd_sc_hd__mux2_2
*I *2679:Y O *D sky130_fd_sc_hd__inv_2
*CAP
1 *2689:A0 0.000640475
2 *2679:Y 0.000640475
3 *2642:A *2689:A0 4.80182e-05
4 *2653:A0 *2689:A0 0
5 *2654:A0 *2689:A0 0.00114905
6 *25:36 *2689:A0 1.1392e-05
7 *238:32 *2689:A0 0.000436979
*RES
1 *2679:Y *2689:A0 23.19 
*END

*D_NET *300 0.000569396
*CONN
*I *2690:A0 I *D sky130_fd_sc_hd__mux2_2
*I *2680:Y O *D sky130_fd_sc_hd__inv_2
*CAP
1 *2690:A0 0.000180918
2 *2680:Y 0.000180918
3 *2690:A0 *2698:A 0
4 *24:68 *2690:A0 9.13951e-05
5 *83:29 *2690:A0 0.000116165
6 *84:22 *2690:A0 0
*RES
1 *2680:Y *2690:A0 10.065 
*END

*D_NET *301 0.000781395
*CONN
*I *2683:A1 I *D sky130_fd_sc_hd__mux2_2
*I *2681:Y O *D sky130_fd_sc_hd__inv_2
*CAP
1 *2683:A1 0.000261154
2 *2681:Y 0.000261154
3 *2674:A *2683:A1 7.23533e-05
4 *2675:A *2683:A1 2.87867e-05
5 *2686:S *2683:A1 0.000120655
6 *170:10 *2683:A1 3.72916e-05
*RES
1 *2681:Y *2683:A1 10.935 
*END

*D_NET *302 0.000923628
*CONN
*I *2684:A1 I *D sky130_fd_sc_hd__mux2_2
*I *2682:Y O *D sky130_fd_sc_hd__inv_2
*CAP
1 *2684:A1 0.000334242
2 *2682:Y 0.000334242
3 *2406:A *2684:A1 2.75229e-05
4 *2406:TE_B *2684:A1 2.75229e-05
5 *2570:DIODE *2684:A1 0.000162311
6 *2682:A *2684:A1 3.77879e-05
*RES
1 *2682:Y *2684:A1 7.91 
*END

*D_NET *303 0.00712341
*CONN
*I *2691:A I *D sky130_fd_sc_hd__bufinv_8
*I *2683:X O *D sky130_fd_sc_hd__mux2_2
*CAP
1 *2691:A 0.00235589
2 *2683:X 0.00235589
3 *2691:A *2695:A 0.00171402
4 *2691:A *306:20 7.68414e-06
5 *2575:DIODE *2691:A 5.30673e-05
6 *2606:A *2691:A 4.82919e-05
7 *2623:A1 *2691:A 8.40269e-05
8 *2652:A0 *2691:A 9.54399e-05
9 *2671:A *2691:A 4.82863e-05
10 *2686:A0 *2691:A 3.18137e-05
11 *2686:A1 *2691:A 8.53113e-06
12 *2688:A1 *2691:A 0.000160641
13 *238:22 *2691:A 0.000159847
*RES
1 *2683:X *2691:A 49.6425 
*END

*D_NET *304 0.0097491
*CONN
*I *2692:A I *D sky130_fd_sc_hd__bufinv_8
*I *2684:X O *D sky130_fd_sc_hd__mux2_2
*CAP
1 *2692:A 0.0012191
2 *2684:X 0.0018373
3 *304:32 0.0030564
4 *2401:A *2692:A 4.60584e-05
5 *2401:TE_B *2692:A 0.000119756
6 *2409:A *304:32 4.9968e-05
7 *2503:A *304:32 1.34503e-05
8 *2619:A0 *304:32 0
9 *2620:A0 *304:32 8.65905e-05
10 *2620:A1 *304:32 0.00012657
11 *2627:A *304:32 1.88602e-05
12 *2632:A *2692:A 0.000313946
13 *2653:A0 *304:32 8.72377e-05
14 *2657:A1 *304:32 0.000387991
15 *2658:A1 *304:32 0.00020422
16 *2665:A *304:32 6.92175e-05
17 *23:59 *304:32 0.000469637
18 *24:44 *2692:A 0.000321313
19 *170:62 *304:32 2.46089e-05
20 *238:45 *304:32 3.86529e-05
21 *238:51 *304:32 0.000237073
22 *238:74 *304:32 0.000288193
23 *238:76 *304:32 0.000169503
24 *238:78 *304:32 0.000416188
25 *238:91 *304:32 0.000147256
*RES
1 *2684:X *304:32 46.21 
2 *304:32 *2692:A 20.95 
*END

*D_NET *305 0.00731635
*CONN
*I *2693:A I *D sky130_fd_sc_hd__bufinv_8
*I *2685:X O *D sky130_fd_sc_hd__mux2_2
*CAP
1 *2693:A 0.00289582
2 *2685:X 0.000211206
3 *305:10 0.00310703
4 *2604:A *2693:A 0.000198945
5 *2621:A1 *2693:A 2.75145e-05
6 *2651:A0 *305:10 0
7 *2652:A0 *305:10 0
8 *2669:A *305:10 0.000118527
9 *2670:A *305:10 0.000122976
10 *2686:A1 *305:10 4.18603e-06
11 *157:23 *305:10 6.55328e-05
12 *283:16 *2693:A 0.000564609
*RES
1 *2685:X *305:10 10.295 
2 *305:10 *2693:A 46.225 
*END

*D_NET *306 0.00833998
*CONN
*I *2694:A I *D sky130_fd_sc_hd__bufinv_8
*I *2686:X O *D sky130_fd_sc_hd__mux2_2
*CAP
1 *2694:A 0.00171751
2 *2686:X 0.00103138
3 *306:20 0.00274889
4 *2404:TE_B *2694:A 4.21973e-05
5 *2410:A *2694:A 0.000195476
6 *2410:TE_B *2694:A 4.60584e-05
7 *2414:A *306:20 4.82919e-05
8 *2414:TE_B *306:20 4.66108e-05
9 *2575:DIODE *306:20 5.05437e-05
10 *2609:A *2694:A 4.82919e-05
11 *2621:A0 *306:20 4.66108e-05
12 *2621:S *2694:A 8.65961e-05
13 *2621:S *306:20 3.00399e-05
14 *2634:A *2694:A 0.000873872
15 *2653:A0 *306:20 4.83241e-05
16 *2671:A *306:20 1.83756e-05
17 *2687:A0 *306:20 0.000114492
18 *2691:A *306:20 7.68414e-06
19 *170:48 *306:20 5.51245e-05
20 *171:23 *2694:A 0.000303176
21 *171:25 *2694:A 7.66083e-05
22 *171:156 *306:20 0.00013994
23 *171:167 *306:20 1.46744e-05
24 *257:6 *306:20 0.000549221
*RES
1 *2686:X *306:20 24.635 
2 *306:20 *2694:A 29.32 
*END

*D_NET *307 0.00693131
*CONN
*I *2695:A I *D sky130_fd_sc_hd__bufinv_8
*I *2687:X O *D sky130_fd_sc_hd__mux2_2
*CAP
1 *2695:A 0.00252999
2 *2687:X 0.00252999
3 *2606:A *2695:A 2.49909e-05
4 *2653:A0 *2695:A 9.54469e-05
5 *2691:A *2695:A 0.00171402
6 *238:32 *2695:A 3.68769e-05
*RES
1 *2687:X *2695:A 49.755 
*END

*D_NET *308 0.00693267
*CONN
*I *2696:A I *D sky130_fd_sc_hd__bufinv_8
*I *2688:X O *D sky130_fd_sc_hd__mux2_2
*CAP
1 *2696:A 0.00266061
2 *2688:X 0.00266061
3 *2584:DIODE *2696:A 8.8266e-05
4 *2611:A *2696:A 0.000197264
5 *2623:S *2696:A 0
6 *2626:S *2696:A 0.000160635
7 *2631:A *2696:A 0.000162784
8 *2639:A *2696:A 4.82919e-05
9 *2647:A *2696:A 4.82863e-05
10 *2648:A *2696:A 8.65905e-05
11 *2657:A0 *2696:A 0.000356395
12 *2664:A *2696:A 0.000328984
13 *23:15 *2696:A 0.000133956
*RES
1 *2688:X *2696:A 49.9125 
*END

*D_NET *309 0.00796167
*CONN
*I *2697:A I *D sky130_fd_sc_hd__bufinv_8
*I *2689:X O *D sky130_fd_sc_hd__mux2_2
*CAP
1 *2697:A 0.00128083
2 *2689:X 0.00102137
3 *309:16 0.0023022
4 spine_top_ow[16] *309:16 0.000155728
5 spine_top_ow[19] *309:16 1.10537e-05
6 *2403:TE_B *309:16 0.000230355
7 *2409:TE_B *309:16 0.000280719
8 *2593:DIODE *2697:A 1.1392e-05
9 *2620:A1 *309:16 0
10 *2655:A0 *309:16 0.00016063
11 *2655:A1 *309:16 4.60584e-05
12 *2655:S *309:16 0.000731058
13 *2666:A *2697:A 0.000610706
14 *25:36 *309:16 0.000474254
15 *146:19 *309:16 0.000420419
16 *148:21 *309:16 0.000176876
17 *283:16 *309:16 4.80285e-05
*RES
1 *2689:X *309:16 31.5575 
2 *309:16 *2697:A 20.695 
*END

*D_NET *310 0.0065365
*CONN
*I *2698:A I *D sky130_fd_sc_hd__bufinv_8
*I *2690:X O *D sky130_fd_sc_hd__mux2_2
*CAP
1 *2698:A 0.00245697
2 *2690:X 0.00245697
3 spine_bot_ow[11] *2698:A 0
4 spine_bot_ow[12] *2698:A 0
5 spine_bot_ow[13] *2698:A 2.04763e-05
6 *2382:A *2698:A 0.000349686
7 *2552:DIODE *2698:A 0
8 *2690:A0 *2698:A 0
9 *83:29 *2698:A 0
10 *84:22 *2698:A 0.000239606
11 *166:30 *2698:A 0.000155602
12 *166:32 *2698:A 0.000184234
13 *166:34 *2698:A 0.000184621
14 *167:17 *2698:A 0.000149977
15 *167:23 *2698:A 0.000312124
16 *167:32 *2698:A 2.01504e-05
17 *167:65 *2698:A 6.07575e-06
18 *167:107 *2698:A 0
*RES
1 *2690:X *2698:A 42.885 
*END
