*SPEF "ieee 1481-1999"
*DESIGN "tt_ctrl"
*DATE "10:07:00 Saturday December 06, 2025"
*VENDOR "The OpenROAD Project"
*PROGRAM "OpenROAD"
*VERSION "341650e72dad0dc8571822ff8c5d9c5e365327f7"
*DESIGN_FLOW "NAME_SCOPE LOCAL" "PIN_CAP NONE"
*DIVIDER /
*DELIMITER :
*BUS_DELIMITER []
*T_UNIT 1 NS
*C_UNIT 1 PF
*R_UNIT 1 OHM
*L_UNIT 1 HENRY

*NAME_MAP
*3 ctrl_ena
*4 ctrl_sel_inc
*5 ctrl_sel_rst_n
*6 k_one
*7 k_zero
*8 pad_ui_in[0]
*9 pad_ui_in[1]
*10 pad_ui_in[2]
*11 pad_ui_in[3]
*12 pad_ui_in[4]
*13 pad_ui_in[5]
*14 pad_ui_in[6]
*15 pad_ui_in[7]
*16 pad_ui_in[8]
*17 pad_ui_in[9]
*18 pad_uio_in[0]
*19 pad_uio_in[1]
*20 pad_uio_in[2]
*21 pad_uio_in[3]
*22 pad_uio_in[4]
*23 pad_uio_in[5]
*24 pad_uio_in[6]
*25 pad_uio_in[7]
*26 uio_oe_obuf_I\[0\]\.z
*27 uio_oe_obuf_I\[1\]\.z
*28 uio_oe_obuf_I\[2\]\.z
*29 uio_oe_obuf_I\[3\]\.z
*30 uio_oe_obuf_I\[4\]\.z
*31 uio_oe_obuf_I\[5\]\.z
*32 uio_oe_obuf_I\[6\]\.z
*33 uio_oe_obuf_I\[7\]\.z
*34 uio_out_obuf_I\[0\]\.z
*35 uio_out_obuf_I\[1\]\.z
*36 uio_out_obuf_I\[2\]\.z
*37 uio_out_obuf_I\[3\]\.z
*38 uio_out_obuf_I\[4\]\.z
*39 uio_out_obuf_I\[5\]\.z
*40 uio_out_obuf_I\[6\]\.z
*41 uio_out_obuf_I\[7\]\.z
*42 uo_out_obuf_I\[0\]\.z
*43 uo_out_obuf_I\[1\]\.z
*44 uo_out_obuf_I\[2\]\.z
*45 uo_out_obuf_I\[3\]\.z
*46 uo_out_obuf_I\[4\]\.z
*47 uo_out_obuf_I\[5\]\.z
*48 uo_out_obuf_I\[6\]\.z
*49 uo_out_obuf_I\[7\]\.z
*50 genblk2\[0\]\.tie_guard_I\[0\]\.lo
*51 genblk2\[0\]\.sel_cnt_buf_I\[8\]\.z
*52 genblk2\[0\]\.pad_ui_in_buf_I\[0\]\.z
*53 genblk2\[0\]\.pad_ui_in_buf_I\[1\]\.z
*54 genblk2\[0\]\.pad_ui_in_buf_I\[2\]\.z
*55 genblk2\[0\]\.pad_ui_in_buf_I\[3\]\.z
*56 genblk2\[0\]\.pad_ui_in_buf_I\[4\]\.z
*57 genblk2\[0\]\.pad_ui_in_buf_I\[5\]\.z
*58 genblk2\[0\]\.pad_ui_in_buf_I\[6\]\.z
*59 genblk2\[0\]\.pad_ui_in_buf_I\[7\]\.z
*60 genblk2\[0\]\.pad_ui_in_buf_I\[8\]\.z
*61 genblk2\[0\]\.ctrl_ena_buf_I\.z
*62 genblk2\[0\]\.pad_ui_in_buf_I\[9\]\.z
*63 genblk2\[0\]\.pad_uio_in_buf_I\[0\]\.z
*64 genblk2\[0\]\.pad_uio_in_buf_I\[1\]\.z
*65 genblk2\[0\]\.pad_uio_in_buf_I\[2\]\.z
*66 genblk2\[0\]\.pad_uio_in_buf_I\[3\]\.z
*67 genblk2\[0\]\.pad_uio_in_buf_I\[4\]\.z
*68 genblk2\[0\]\.pad_uio_in_buf_I\[5\]\.z
*69 genblk2\[0\]\.pad_uio_in_buf_I\[6\]\.z
*70 genblk2\[0\]\.pad_uio_in_buf_I\[7\]\.z
*71 genblk2\[0\]\.tie_guard_I\[1\]\.lo
*72 genblk2\[0\]\.sel_cnt_buf_I\[0\]\.z
*73 genblk2\[0\]\.sel_cnt_buf_I\[1\]\.z
*74 genblk2\[0\]\.sel_cnt_buf_I\[2\]\.z
*75 genblk2\[0\]\.sel_cnt_buf_I\[3\]\.z
*76 genblk2\[0\]\.sel_cnt_buf_I\[4\]\.z
*77 genblk2\[0\]\.sel_cnt_buf_I\[5\]\.z
*78 genblk2\[0\]\.sel_cnt_buf_I\[6\]\.z
*79 genblk2\[0\]\.sel_cnt_buf_I\[7\]\.z
*80 spine_bot_ow[0]
*81 spine_bot_ow[10]
*82 spine_bot_ow[11]
*83 spine_bot_ow[12]
*84 spine_bot_ow[13]
*85 spine_bot_ow[14]
*86 spine_bot_ow[15]
*87 spine_bot_ow[16]
*88 spine_bot_ow[17]
*89 spine_bot_ow[18]
*90 spine_bot_ow[19]
*91 spine_bot_ow[1]
*92 spine_bot_ow[20]
*93 spine_bot_ow[21]
*94 spine_bot_ow[22]
*95 spine_bot_ow[23]
*96 spine_bot_ow[24]
*97 spine_bot_ow[25]
*98 spine_bot_ow[2]
*99 spine_bot_ow[3]
*100 spine_bot_ow[4]
*101 spine_bot_ow[5]
*102 spine_bot_ow[6]
*103 spine_bot_ow[7]
*104 spine_bot_ow[8]
*105 spine_bot_ow[9]
*106 genblk2\[1\]\.tie_guard_I\[0\]\.lo
*107 genblk2\[1\]\.sel_cnt_buf_I\[8\]\.z
*108 genblk2\[1\]\.pad_ui_in_buf_I\[0\]\.z
*109 genblk2\[1\]\.pad_ui_in_buf_I\[1\]\.z
*110 genblk2\[1\]\.pad_ui_in_buf_I\[2\]\.z
*111 genblk2\[1\]\.pad_ui_in_buf_I\[3\]\.z
*112 genblk2\[1\]\.pad_ui_in_buf_I\[4\]\.z
*113 genblk2\[1\]\.pad_ui_in_buf_I\[5\]\.z
*114 genblk2\[1\]\.pad_ui_in_buf_I\[6\]\.z
*115 genblk2\[1\]\.pad_ui_in_buf_I\[7\]\.z
*116 genblk2\[1\]\.pad_ui_in_buf_I\[8\]\.z
*117 genblk2\[1\]\.ctrl_ena_buf_I\.z
*118 genblk2\[1\]\.pad_ui_in_buf_I\[9\]\.z
*119 genblk2\[1\]\.pad_uio_in_buf_I\[0\]\.z
*120 genblk2\[1\]\.pad_uio_in_buf_I\[1\]\.z
*121 genblk2\[1\]\.pad_uio_in_buf_I\[2\]\.z
*122 genblk2\[1\]\.pad_uio_in_buf_I\[3\]\.z
*123 genblk2\[1\]\.pad_uio_in_buf_I\[4\]\.z
*124 genblk2\[1\]\.pad_uio_in_buf_I\[5\]\.z
*125 genblk2\[1\]\.pad_uio_in_buf_I\[6\]\.z
*126 genblk2\[1\]\.pad_uio_in_buf_I\[7\]\.z
*127 genblk2\[1\]\.tie_guard_I\[1\]\.lo
*128 genblk2\[1\]\.sel_cnt_buf_I\[0\]\.z
*129 genblk2\[1\]\.sel_cnt_buf_I\[1\]\.z
*130 genblk2\[1\]\.sel_cnt_buf_I\[2\]\.z
*131 genblk2\[1\]\.sel_cnt_buf_I\[3\]\.z
*132 genblk2\[1\]\.sel_cnt_buf_I\[4\]\.z
*133 genblk2\[1\]\.sel_cnt_buf_I\[5\]\.z
*134 genblk2\[1\]\.sel_cnt_buf_I\[6\]\.z
*135 genblk2\[1\]\.sel_cnt_buf_I\[7\]\.z
*136 spine_top_ow[0]
*137 spine_top_ow[10]
*138 spine_top_ow[11]
*139 spine_top_ow[12]
*140 spine_top_ow[13]
*141 spine_top_ow[14]
*142 spine_top_ow[15]
*143 spine_top_ow[16]
*144 spine_top_ow[17]
*145 spine_top_ow[18]
*146 spine_top_ow[19]
*147 spine_top_ow[1]
*148 spine_top_ow[20]
*149 spine_top_ow[21]
*150 spine_top_ow[22]
*151 spine_top_ow[23]
*152 spine_top_ow[24]
*153 spine_top_ow[25]
*154 spine_top_ow[2]
*155 spine_top_ow[3]
*156 spine_top_ow[4]
*157 spine_top_ow[5]
*158 spine_top_ow[6]
*159 spine_top_ow[7]
*160 spine_top_ow[8]
*161 spine_top_ow[9]
*162 ctrl_ena_ibuf
*163 ctrl_ibuf_I\[1\]\.z
*164 ctrl_ibuf_I\[2\]\.z
*165 genblk1\[0\]\.pull
*166 genblk1\[0\]\.tbuf_pol_spine_ow_I\.tx
*167 genblk1\[0\]\.tbuf_spine_ow_I\[0\]\.a
*168 genblk1\[0\]\.tie_I\.hi
*169 genblk1\[1\]\.pull
*170 genblk1\[1\]\.tbuf_pol_spine_ow_I\.tx
*171 genblk1\[1\]\.tbuf_spine_ow_I\[0\]\.a
*172 genblk1\[1\]\.tie_I\.hi
*173 genblk2\[0\]\.ctrl_ena_buf_I\.a
*174 genblk2\[0\]\.pad_ui_in_buf_I\[0\]\.genblk1\.l
*175 genblk2\[0\]\.pad_ui_in_buf_I\[1\]\.genblk1\.l
*176 genblk2\[0\]\.pad_ui_in_buf_I\[2\]\.genblk1\.l
*177 genblk2\[0\]\.pad_ui_in_buf_I\[3\]\.genblk1\.l
*178 genblk2\[0\]\.pad_ui_in_buf_I\[4\]\.genblk1\.l
*179 genblk2\[0\]\.pad_ui_in_buf_I\[5\]\.genblk1\.l
*180 genblk2\[0\]\.pad_ui_in_buf_I\[6\]\.genblk1\.l
*181 genblk2\[0\]\.pad_ui_in_buf_I\[7\]\.genblk1\.l
*182 genblk2\[0\]\.pad_ui_in_buf_I\[8\]\.genblk1\.l
*183 genblk2\[0\]\.pad_ui_in_buf_I\[9\]\.genblk1\.l
*184 genblk2\[0\]\.pad_uio_in_buf_I\[0\]\.genblk1\.l
*185 genblk2\[0\]\.pad_uio_in_buf_I\[1\]\.genblk1\.l
*186 genblk2\[0\]\.pad_uio_in_buf_I\[2\]\.genblk1\.l
*187 genblk2\[0\]\.pad_uio_in_buf_I\[3\]\.genblk1\.l
*188 genblk2\[0\]\.pad_uio_in_buf_I\[4\]\.genblk1\.l
*189 genblk2\[0\]\.pad_uio_in_buf_I\[5\]\.genblk1\.l
*190 genblk2\[0\]\.pad_uio_in_buf_I\[6\]\.genblk1\.l
*191 genblk2\[0\]\.pad_uio_in_buf_I\[7\]\.genblk1\.l
*192 genblk2\[0\]\.sel_cnt_buf_I\[0\]\.a
*193 genblk2\[0\]\.sel_cnt_buf_I\[1\]\.a
*194 genblk2\[0\]\.sel_cnt_buf_I\[2\]\.a
*195 genblk2\[0\]\.sel_cnt_buf_I\[3\]\.a
*196 genblk2\[0\]\.sel_cnt_buf_I\[4\]\.a
*197 genblk2\[0\]\.sel_cnt_buf_I\[5\]\.a
*198 genblk2\[0\]\.sel_cnt_buf_I\[6\]\.a
*199 genblk2\[0\]\.sel_cnt_buf_I\[7\]\.a
*200 genblk2\[0\]\.sel_cnt_buf_I\[8\]\.a
*201 genblk2\[0\]\.tie_guard_I\[0\]\.hi
*202 genblk2\[0\]\.tie_guard_I\[1\]\.hi
*203 genblk2\[1\]\.ctrl_ena_buf_I\.a
*204 genblk2\[1\]\.pad_ui_in_buf_I\[0\]\.genblk1\.l
*205 genblk2\[1\]\.pad_ui_in_buf_I\[1\]\.genblk1\.l
*206 genblk2\[1\]\.pad_ui_in_buf_I\[2\]\.genblk1\.l
*207 genblk2\[1\]\.pad_ui_in_buf_I\[3\]\.genblk1\.l
*208 genblk2\[1\]\.pad_ui_in_buf_I\[4\]\.genblk1\.l
*209 genblk2\[1\]\.pad_ui_in_buf_I\[5\]\.genblk1\.l
*210 genblk2\[1\]\.pad_ui_in_buf_I\[6\]\.genblk1\.l
*211 genblk2\[1\]\.pad_ui_in_buf_I\[7\]\.genblk1\.l
*212 genblk2\[1\]\.pad_ui_in_buf_I\[8\]\.genblk1\.l
*213 genblk2\[1\]\.pad_ui_in_buf_I\[9\]\.genblk1\.l
*214 genblk2\[1\]\.pad_uio_in_buf_I\[0\]\.genblk1\.l
*215 genblk2\[1\]\.pad_uio_in_buf_I\[1\]\.genblk1\.l
*216 genblk2\[1\]\.pad_uio_in_buf_I\[2\]\.genblk1\.l
*217 genblk2\[1\]\.pad_uio_in_buf_I\[3\]\.genblk1\.l
*218 genblk2\[1\]\.pad_uio_in_buf_I\[4\]\.genblk1\.l
*219 genblk2\[1\]\.pad_uio_in_buf_I\[5\]\.genblk1\.l
*220 genblk2\[1\]\.pad_uio_in_buf_I\[6\]\.genblk1\.l
*221 genblk2\[1\]\.pad_uio_in_buf_I\[7\]\.genblk1\.l
*222 genblk2\[1\]\.tie_guard_I\[0\]\.hi
*223 genblk2\[1\]\.tie_guard_I\[1\]\.hi
*224 sel_cnt_gen\[0\]\.cnt_bit_I\.d
*225 sel_cnt_gen\[1\]\.cnt_bit_I\.d
*226 sel_cnt_gen\[2\]\.cnt_bit_I\.d
*227 sel_cnt_gen\[3\]\.cnt_bit_I\.d
*228 sel_cnt_gen\[4\]\.cnt_bit_I\.d
*229 sel_cnt_gen\[5\]\.cnt_bit_I\.d
*230 sel_cnt_gen\[5\]\.cnt_bit_I\.q
*231 sel_cnt_gen\[6\]\.cnt_bit_I\.d
*232 sel_cnt_gen\[7\]\.cnt_bit_I\.d
*233 sel_cnt_gen\[8\]\.cnt_bit_I\.d
*234 sel_cnt_gen\[9\]\.cnt_bit_I\.d
*235 side_ena0_buf_I\.a
*236 side_ena0_buf_I\.genblk1\.l
*237 side_ena1_buf_I\.genblk1\.l
*238 side_sel
*239 uio_oe_ibuf_I\[0\]\.z
*240 uio_oe_ibuf_I\[10\]\.z
*241 uio_oe_ibuf_I\[11\]\.z
*242 uio_oe_ibuf_I\[12\]\.z
*243 uio_oe_ibuf_I\[13\]\.z
*244 uio_oe_ibuf_I\[14\]\.z
*245 uio_oe_ibuf_I\[15\]\.z
*246 uio_oe_ibuf_I\[1\]\.z
*247 uio_oe_ibuf_I\[2\]\.z
*248 uio_oe_ibuf_I\[3\]\.z
*249 uio_oe_ibuf_I\[4\]\.z
*250 uio_oe_ibuf_I\[5\]\.z
*251 uio_oe_ibuf_I\[6\]\.z
*252 uio_oe_ibuf_I\[7\]\.z
*253 uio_oe_ibuf_I\[8\]\.z
*254 uio_oe_ibuf_I\[9\]\.z
*255 uio_oe_mux_I\[0\]\.x
*256 uio_oe_mux_I\[1\]\.x
*257 uio_oe_mux_I\[2\]\.x
*258 uio_oe_mux_I\[3\]\.x
*259 uio_oe_mux_I\[4\]\.x
*260 uio_oe_mux_I\[5\]\.x
*261 uio_oe_mux_I\[6\]\.x
*262 uio_oe_mux_I\[7\]\.x
*263 uio_out_ibuf_I\[0\]\.z
*264 uio_out_ibuf_I\[10\]\.z
*265 uio_out_ibuf_I\[11\]\.z
*266 uio_out_ibuf_I\[12\]\.z
*267 uio_out_ibuf_I\[13\]\.z
*268 uio_out_ibuf_I\[14\]\.z
*269 uio_out_ibuf_I\[15\]\.z
*270 uio_out_ibuf_I\[1\]\.z
*271 uio_out_ibuf_I\[2\]\.z
*272 uio_out_ibuf_I\[3\]\.z
*273 uio_out_ibuf_I\[4\]\.z
*274 uio_out_ibuf_I\[5\]\.z
*275 uio_out_ibuf_I\[6\]\.z
*276 uio_out_ibuf_I\[7\]\.z
*277 uio_out_ibuf_I\[8\]\.z
*278 uio_out_ibuf_I\[9\]\.z
*279 uio_out_mux_I\[0\]\.x
*280 uio_out_mux_I\[1\]\.x
*281 uio_out_mux_I\[2\]\.x
*282 uio_out_mux_I\[3\]\.x
*283 uio_out_mux_I\[4\]\.x
*284 uio_out_mux_I\[5\]\.x
*285 uio_out_mux_I\[6\]\.x
*286 uio_out_mux_I\[7\]\.x
*287 uo_out_ibuf_I\[0\]\.z
*288 uo_out_ibuf_I\[10\]\.z
*289 uo_out_ibuf_I\[11\]\.z
*290 uo_out_ibuf_I\[12\]\.z
*291 uo_out_ibuf_I\[13\]\.z
*292 uo_out_ibuf_I\[14\]\.z
*293 uo_out_ibuf_I\[15\]\.z
*294 uo_out_ibuf_I\[1\]\.z
*295 uo_out_ibuf_I\[2\]\.z
*296 uo_out_ibuf_I\[3\]\.z
*297 uo_out_ibuf_I\[4\]\.z
*298 uo_out_ibuf_I\[5\]\.z
*299 uo_out_ibuf_I\[6\]\.z
*300 uo_out_ibuf_I\[7\]\.z
*301 uo_out_ibuf_I\[8\]\.z
*302 uo_out_ibuf_I\[9\]\.z
*303 uo_out_mux_I\[0\]\.x
*304 uo_out_mux_I\[1\]\.x
*305 uo_out_mux_I\[2\]\.x
*306 uo_out_mux_I\[3\]\.x
*307 uo_out_mux_I\[4\]\.x
*308 uo_out_mux_I\[5\]\.x
*309 uo_out_mux_I\[6\]\.x
*310 uo_out_mux_I\[7\]\.x
*311 FILLER_0_109
*312 FILLER_0_111
*313 FILLER_0_113
*314 FILLER_0_125
*315 FILLER_0_137
*316 FILLER_0_139
*317 FILLER_0_141
*318 FILLER_0_15
*319 FILLER_0_153
*320 FILLER_0_165
*321 FILLER_0_167
*322 FILLER_0_169
*323 FILLER_0_181
*324 FILLER_0_193
*325 FILLER_0_195
*326 FILLER_0_197
*327 FILLER_0_209
*328 FILLER_0_221
*329 FILLER_0_223
*330 FILLER_0_225
*331 FILLER_0_237
*332 FILLER_0_251
*333 FILLER_0_253
*334 FILLER_0_27
*335 FILLER_0_272
*336 FILLER_0_281
*337 FILLER_0_29
*338 FILLER_0_293
*339 FILLER_0_3
*340 FILLER_0_307
*341 FILLER_0_309
*342 FILLER_0_321
*343 FILLER_0_333
*344 FILLER_0_335
*345 FILLER_0_337
*346 FILLER_0_349
*347 FILLER_0_361
*348 FILLER_0_363
*349 FILLER_0_365
*350 FILLER_0_377
*351 FILLER_0_41
*352 FILLER_0_53
*353 FILLER_0_55
*354 FILLER_0_57
*355 FILLER_0_69
*356 FILLER_0_81
*357 FILLER_0_83
*358 FILLER_0_85
*359 FILLER_0_97
*360 FILLER_10_109
*361 FILLER_10_121
*362 FILLER_10_133
*363 FILLER_10_137
*364 FILLER_10_139
*365 FILLER_10_141
*366 FILLER_10_15
*367 FILLER_10_153
*368 FILLER_10_165
*369 FILLER_10_169
*370 FILLER_10_171
*371 FILLER_10_184
*372 FILLER_10_197
*373 FILLER_10_201
*374 FILLER_10_227
*375 FILLER_10_239
*376 FILLER_10_251
*377 FILLER_10_253
*378 FILLER_10_257
*379 FILLER_10_27
*380 FILLER_10_283
*381 FILLER_10_29
*382 FILLER_10_295
*383 FILLER_10_3
*384 FILLER_10_307
*385 FILLER_10_309
*386 FILLER_10_315
*387 FILLER_10_327
*388 FILLER_10_339
*389 FILLER_10_347
*390 FILLER_10_350
*391 FILLER_10_358
*392 FILLER_10_362
*393 FILLER_10_365
*394 FILLER_10_369
*395 FILLER_10_372
*396 FILLER_10_384
*397 FILLER_10_41
*398 FILLER_10_53
*399 FILLER_10_65
*400 FILLER_10_77
*401 FILLER_10_81
*402 FILLER_10_83
*403 FILLER_10_85
*404 FILLER_10_97
*405 FILLER_11_105
*406 FILLER_11_109
*407 FILLER_11_111
*408 FILLER_11_113
*409 FILLER_11_125
*410 FILLER_11_137
*411 FILLER_11_149
*412 FILLER_11_15
*413 FILLER_11_161
*414 FILLER_11_165
*415 FILLER_11_167
*416 FILLER_11_169
*417 FILLER_11_173
*418 FILLER_11_175
*419 FILLER_11_182
*420 FILLER_11_194
*421 FILLER_11_206
*422 FILLER_11_218
*423 FILLER_11_222
*424 FILLER_11_225
*425 FILLER_11_237
*426 FILLER_11_249
*427 FILLER_11_261
*428 FILLER_11_265
*429 FILLER_11_27
*430 FILLER_11_279
*431 FILLER_11_281
*432 FILLER_11_293
*433 FILLER_11_3
*434 FILLER_11_305
*435 FILLER_11_317
*436 FILLER_11_329
*437 FILLER_11_333
*438 FILLER_11_335
*439 FILLER_11_337
*440 FILLER_11_349
*441 FILLER_11_361
*442 FILLER_11_373
*443 FILLER_11_39
*444 FILLER_11_51
*445 FILLER_11_55
*446 FILLER_11_57
*447 FILLER_11_69
*448 FILLER_11_81
*449 FILLER_11_93
*450 FILLER_12_109
*451 FILLER_12_121
*452 FILLER_12_133
*453 FILLER_12_137
*454 FILLER_12_139
*455 FILLER_12_141
*456 FILLER_12_15
*457 FILLER_12_153
*458 FILLER_12_165
*459 FILLER_12_177
*460 FILLER_12_189
*461 FILLER_12_193
*462 FILLER_12_195
*463 FILLER_12_197
*464 FILLER_12_209
*465 FILLER_12_221
*466 FILLER_12_246
*467 FILLER_12_250
*468 FILLER_12_253
*469 FILLER_12_265
*470 FILLER_12_27
*471 FILLER_12_279
*472 FILLER_12_29
*473 FILLER_12_291
*474 FILLER_12_3
*475 FILLER_12_303
*476 FILLER_12_307
*477 FILLER_12_309
*478 FILLER_12_321
*479 FILLER_12_333
*480 FILLER_12_345
*481 FILLER_12_357
*482 FILLER_12_361
*483 FILLER_12_363
*484 FILLER_12_365
*485 FILLER_12_377
*486 FILLER_12_41
*487 FILLER_12_53
*488 FILLER_12_65
*489 FILLER_12_77
*490 FILLER_12_81
*491 FILLER_12_83
*492 FILLER_12_85
*493 FILLER_12_97
*494 FILLER_13_105
*495 FILLER_13_109
*496 FILLER_13_111
*497 FILLER_13_113
*498 FILLER_13_125
*499 FILLER_13_137
*500 FILLER_13_149
*501 FILLER_13_15
*502 FILLER_13_161
*503 FILLER_13_165
*504 FILLER_13_167
*505 FILLER_13_169
*506 FILLER_13_181
*507 FILLER_13_193
*508 FILLER_13_205
*509 FILLER_13_217
*510 FILLER_13_221
*511 FILLER_13_223
*512 FILLER_13_225
*513 FILLER_13_233
*514 FILLER_13_235
*515 FILLER_13_260
*516 FILLER_13_264
*517 FILLER_13_27
*518 FILLER_13_278
*519 FILLER_13_281
*520 FILLER_13_293
*521 FILLER_13_3
*522 FILLER_13_305
*523 FILLER_13_317
*524 FILLER_13_329
*525 FILLER_13_333
*526 FILLER_13_335
*527 FILLER_13_337
*528 FILLER_13_349
*529 FILLER_13_361
*530 FILLER_13_373
*531 FILLER_13_39
*532 FILLER_13_51
*533 FILLER_13_55
*534 FILLER_13_57
*535 FILLER_13_69
*536 FILLER_13_81
*537 FILLER_13_93
*538 FILLER_14_109
*539 FILLER_14_121
*540 FILLER_14_133
*541 FILLER_14_137
*542 FILLER_14_139
*543 FILLER_14_141
*544 FILLER_14_15
*545 FILLER_14_153
*546 FILLER_14_165
*547 FILLER_14_177
*548 FILLER_14_189
*549 FILLER_14_193
*550 FILLER_14_195
*551 FILLER_14_197
*552 FILLER_14_209
*553 FILLER_14_221
*554 FILLER_14_233
*555 FILLER_14_245
*556 FILLER_14_249
*557 FILLER_14_251
*558 FILLER_14_27
*559 FILLER_14_277
*560 FILLER_14_289
*561 FILLER_14_29
*562 FILLER_14_3
*563 FILLER_14_301
*564 FILLER_14_305
*565 FILLER_14_307
*566 FILLER_14_309
*567 FILLER_14_321
*568 FILLER_14_333
*569 FILLER_14_345
*570 FILLER_14_357
*571 FILLER_14_361
*572 FILLER_14_363
*573 FILLER_14_365
*574 FILLER_14_377
*575 FILLER_14_41
*576 FILLER_14_53
*577 FILLER_14_65
*578 FILLER_14_77
*579 FILLER_14_81
*580 FILLER_14_83
*581 FILLER_14_85
*582 FILLER_14_97
*583 FILLER_15_105
*584 FILLER_15_109
*585 FILLER_15_111
*586 FILLER_15_113
*587 FILLER_15_125
*588 FILLER_15_137
*589 FILLER_15_149
*590 FILLER_15_15
*591 FILLER_15_161
*592 FILLER_15_165
*593 FILLER_15_167
*594 FILLER_15_169
*595 FILLER_15_181
*596 FILLER_15_193
*597 FILLER_15_205
*598 FILLER_15_217
*599 FILLER_15_221
*600 FILLER_15_223
*601 FILLER_15_225
*602 FILLER_15_237
*603 FILLER_15_269
*604 FILLER_15_27
*605 FILLER_15_277
*606 FILLER_15_279
*607 FILLER_15_281
*608 FILLER_15_293
*609 FILLER_15_3
*610 FILLER_15_305
*611 FILLER_15_317
*612 FILLER_15_329
*613 FILLER_15_333
*614 FILLER_15_335
*615 FILLER_15_337
*616 FILLER_15_349
*617 FILLER_15_361
*618 FILLER_15_373
*619 FILLER_15_39
*620 FILLER_15_51
*621 FILLER_15_55
*622 FILLER_15_57
*623 FILLER_15_69
*624 FILLER_15_81
*625 FILLER_15_93
*626 FILLER_16_109
*627 FILLER_16_121
*628 FILLER_16_133
*629 FILLER_16_137
*630 FILLER_16_139
*631 FILLER_16_141
*632 FILLER_16_15
*633 FILLER_16_153
*634 FILLER_16_165
*635 FILLER_16_177
*636 FILLER_16_189
*637 FILLER_16_193
*638 FILLER_16_195
*639 FILLER_16_197
*640 FILLER_16_209
*641 FILLER_16_221
*642 FILLER_16_233
*643 FILLER_16_245
*644 FILLER_16_249
*645 FILLER_16_251
*646 FILLER_16_253
*647 FILLER_16_265
*648 FILLER_16_27
*649 FILLER_16_277
*650 FILLER_16_289
*651 FILLER_16_29
*652 FILLER_16_3
*653 FILLER_16_301
*654 FILLER_16_305
*655 FILLER_16_307
*656 FILLER_16_309
*657 FILLER_16_321
*658 FILLER_16_333
*659 FILLER_16_345
*660 FILLER_16_357
*661 FILLER_16_361
*662 FILLER_16_363
*663 FILLER_16_365
*664 FILLER_16_377
*665 FILLER_16_41
*666 FILLER_16_53
*667 FILLER_16_65
*668 FILLER_16_77
*669 FILLER_16_81
*670 FILLER_16_83
*671 FILLER_16_85
*672 FILLER_16_97
*673 FILLER_17_105
*674 FILLER_17_109
*675 FILLER_17_111
*676 FILLER_17_113
*677 FILLER_17_125
*678 FILLER_17_137
*679 FILLER_17_149
*680 FILLER_17_15
*681 FILLER_17_161
*682 FILLER_17_165
*683 FILLER_17_167
*684 FILLER_17_169
*685 FILLER_17_181
*686 FILLER_17_193
*687 FILLER_17_205
*688 FILLER_17_217
*689 FILLER_17_221
*690 FILLER_17_223
*691 FILLER_17_225
*692 FILLER_17_237
*693 FILLER_17_249
*694 FILLER_17_261
*695 FILLER_17_27
*696 FILLER_17_273
*697 FILLER_17_277
*698 FILLER_17_279
*699 FILLER_17_281
*700 FILLER_17_293
*701 FILLER_17_3
*702 FILLER_17_305
*703 FILLER_17_317
*704 FILLER_17_329
*705 FILLER_17_333
*706 FILLER_17_335
*707 FILLER_17_337
*708 FILLER_17_349
*709 FILLER_17_361
*710 FILLER_17_373
*711 FILLER_17_39
*712 FILLER_17_51
*713 FILLER_17_55
*714 FILLER_17_57
*715 FILLER_17_69
*716 FILLER_17_81
*717 FILLER_17_93
*718 FILLER_18_109
*719 FILLER_18_121
*720 FILLER_18_133
*721 FILLER_18_137
*722 FILLER_18_139
*723 FILLER_18_141
*724 FILLER_18_15
*725 FILLER_18_153
*726 FILLER_18_165
*727 FILLER_18_177
*728 FILLER_18_189
*729 FILLER_18_193
*730 FILLER_18_195
*731 FILLER_18_197
*732 FILLER_18_209
*733 FILLER_18_221
*734 FILLER_18_233
*735 FILLER_18_245
*736 FILLER_18_249
*737 FILLER_18_251
*738 FILLER_18_253
*739 FILLER_18_265
*740 FILLER_18_27
*741 FILLER_18_277
*742 FILLER_18_289
*743 FILLER_18_29
*744 FILLER_18_3
*745 FILLER_18_301
*746 FILLER_18_305
*747 FILLER_18_307
*748 FILLER_18_309
*749 FILLER_18_321
*750 FILLER_18_333
*751 FILLER_18_345
*752 FILLER_18_357
*753 FILLER_18_361
*754 FILLER_18_363
*755 FILLER_18_365
*756 FILLER_18_377
*757 FILLER_18_41
*758 FILLER_18_53
*759 FILLER_18_65
*760 FILLER_18_77
*761 FILLER_18_81
*762 FILLER_18_83
*763 FILLER_18_85
*764 FILLER_18_97
*765 FILLER_19_105
*766 FILLER_19_109
*767 FILLER_19_111
*768 FILLER_19_113
*769 FILLER_19_125
*770 FILLER_19_137
*771 FILLER_19_149
*772 FILLER_19_15
*773 FILLER_19_161
*774 FILLER_19_165
*775 FILLER_19_167
*776 FILLER_19_169
*777 FILLER_19_181
*778 FILLER_19_193
*779 FILLER_19_205
*780 FILLER_19_217
*781 FILLER_19_221
*782 FILLER_19_223
*783 FILLER_19_225
*784 FILLER_19_237
*785 FILLER_19_249
*786 FILLER_19_261
*787 FILLER_19_265
*788 FILLER_19_267
*789 FILLER_19_27
*790 FILLER_19_281
*791 FILLER_19_293
*792 FILLER_19_3
*793 FILLER_19_305
*794 FILLER_19_317
*795 FILLER_19_329
*796 FILLER_19_333
*797 FILLER_19_335
*798 FILLER_19_337
*799 FILLER_19_349
*800 FILLER_19_361
*801 FILLER_19_373
*802 FILLER_19_39
*803 FILLER_19_51
*804 FILLER_19_55
*805 FILLER_19_57
*806 FILLER_19_69
*807 FILLER_19_81
*808 FILLER_19_93
*809 FILLER_1_102
*810 FILLER_1_110
*811 FILLER_1_113
*812 FILLER_1_125
*813 FILLER_1_129
*814 FILLER_1_131
*815 FILLER_1_15
*816 FILLER_1_150
*817 FILLER_1_160
*818 FILLER_1_169
*819 FILLER_1_173
*820 FILLER_1_178
*821 FILLER_1_193
*822 FILLER_1_205
*823 FILLER_1_217
*824 FILLER_1_221
*825 FILLER_1_223
*826 FILLER_1_261
*827 FILLER_1_27
*828 FILLER_1_275
*829 FILLER_1_279
*830 FILLER_1_281
*831 FILLER_1_3
*832 FILLER_1_307
*833 FILLER_1_311
*834 FILLER_1_323
*835 FILLER_1_335
*836 FILLER_1_337
*837 FILLER_1_349
*838 FILLER_1_361
*839 FILLER_1_373
*840 FILLER_1_39
*841 FILLER_1_41
*842 FILLER_1_45
*843 FILLER_1_48
*844 FILLER_1_57
*845 FILLER_1_69
*846 FILLER_1_73
*847 FILLER_1_75
*848 FILLER_20_109
*849 FILLER_20_121
*850 FILLER_20_133
*851 FILLER_20_137
*852 FILLER_20_139
*853 FILLER_20_141
*854 FILLER_20_15
*855 FILLER_20_153
*856 FILLER_20_165
*857 FILLER_20_177
*858 FILLER_20_189
*859 FILLER_20_193
*860 FILLER_20_195
*861 FILLER_20_197
*862 FILLER_20_209
*863 FILLER_20_221
*864 FILLER_20_233
*865 FILLER_20_245
*866 FILLER_20_249
*867 FILLER_20_251
*868 FILLER_20_253
*869 FILLER_20_265
*870 FILLER_20_27
*871 FILLER_20_277
*872 FILLER_20_289
*873 FILLER_20_29
*874 FILLER_20_3
*875 FILLER_20_301
*876 FILLER_20_305
*877 FILLER_20_307
*878 FILLER_20_309
*879 FILLER_20_321
*880 FILLER_20_333
*881 FILLER_20_345
*882 FILLER_20_357
*883 FILLER_20_361
*884 FILLER_20_363
*885 FILLER_20_365
*886 FILLER_20_377
*887 FILLER_20_41
*888 FILLER_20_53
*889 FILLER_20_65
*890 FILLER_20_77
*891 FILLER_20_81
*892 FILLER_20_83
*893 FILLER_20_85
*894 FILLER_20_97
*895 FILLER_21_105
*896 FILLER_21_109
*897 FILLER_21_111
*898 FILLER_21_113
*899 FILLER_21_125
*900 FILLER_21_137
*901 FILLER_21_149
*902 FILLER_21_15
*903 FILLER_21_161
*904 FILLER_21_165
*905 FILLER_21_167
*906 FILLER_21_169
*907 FILLER_21_181
*908 FILLER_21_193
*909 FILLER_21_205
*910 FILLER_21_217
*911 FILLER_21_221
*912 FILLER_21_223
*913 FILLER_21_225
*914 FILLER_21_237
*915 FILLER_21_249
*916 FILLER_21_261
*917 FILLER_21_27
*918 FILLER_21_273
*919 FILLER_21_277
*920 FILLER_21_279
*921 FILLER_21_281
*922 FILLER_21_293
*923 FILLER_21_3
*924 FILLER_21_305
*925 FILLER_21_317
*926 FILLER_21_329
*927 FILLER_21_333
*928 FILLER_21_335
*929 FILLER_21_337
*930 FILLER_21_349
*931 FILLER_21_361
*932 FILLER_21_373
*933 FILLER_21_39
*934 FILLER_21_51
*935 FILLER_21_55
*936 FILLER_21_57
*937 FILLER_21_69
*938 FILLER_21_81
*939 FILLER_21_93
*940 FILLER_22_111
*941 FILLER_22_123
*942 FILLER_22_135
*943 FILLER_22_139
*944 FILLER_22_141
*945 FILLER_22_15
*946 FILLER_22_153
*947 FILLER_22_165
*948 FILLER_22_177
*949 FILLER_22_189
*950 FILLER_22_193
*951 FILLER_22_195
*952 FILLER_22_197
*953 FILLER_22_209
*954 FILLER_22_221
*955 FILLER_22_233
*956 FILLER_22_245
*957 FILLER_22_249
*958 FILLER_22_251
*959 FILLER_22_253
*960 FILLER_22_265
*961 FILLER_22_27
*962 FILLER_22_277
*963 FILLER_22_289
*964 FILLER_22_29
*965 FILLER_22_3
*966 FILLER_22_301
*967 FILLER_22_305
*968 FILLER_22_307
*969 FILLER_22_309
*970 FILLER_22_321
*971 FILLER_22_333
*972 FILLER_22_345
*973 FILLER_22_357
*974 FILLER_22_361
*975 FILLER_22_363
*976 FILLER_22_365
*977 FILLER_22_377
*978 FILLER_22_41
*979 FILLER_22_53
*980 FILLER_22_65
*981 FILLER_22_77
*982 FILLER_22_81
*983 FILLER_22_83
*984 FILLER_22_85
*985 FILLER_22_97
*986 FILLER_23_105
*987 FILLER_23_109
*988 FILLER_23_111
*989 FILLER_23_113
*990 FILLER_23_125
*991 FILLER_23_137
*992 FILLER_23_149
*993 FILLER_23_15
*994 FILLER_23_161
*995 FILLER_23_165
*996 FILLER_23_167
*997 FILLER_23_169
*998 FILLER_23_181
*999 FILLER_23_193
*1000 FILLER_23_205
*1001 FILLER_23_217
*1002 FILLER_23_221
*1003 FILLER_23_223
*1004 FILLER_23_225
*1005 FILLER_23_237
*1006 FILLER_23_249
*1007 FILLER_23_261
*1008 FILLER_23_265
*1009 FILLER_23_27
*1010 FILLER_23_278
*1011 FILLER_23_281
*1012 FILLER_23_293
*1013 FILLER_23_3
*1014 FILLER_23_305
*1015 FILLER_23_317
*1016 FILLER_23_329
*1017 FILLER_23_333
*1018 FILLER_23_335
*1019 FILLER_23_337
*1020 FILLER_23_349
*1021 FILLER_23_361
*1022 FILLER_23_373
*1023 FILLER_23_39
*1024 FILLER_23_51
*1025 FILLER_23_55
*1026 FILLER_23_57
*1027 FILLER_23_69
*1028 FILLER_23_81
*1029 FILLER_23_93
*1030 FILLER_24_101
*1031 FILLER_24_103
*1032 FILLER_24_106
*1033 FILLER_24_110
*1034 FILLER_24_118
*1035 FILLER_24_130
*1036 FILLER_24_134
*1037 FILLER_24_138
*1038 FILLER_24_141
*1039 FILLER_24_15
*1040 FILLER_24_153
*1041 FILLER_24_165
*1042 FILLER_24_177
*1043 FILLER_24_189
*1044 FILLER_24_193
*1045 FILLER_24_195
*1046 FILLER_24_197
*1047 FILLER_24_209
*1048 FILLER_24_221
*1049 FILLER_24_233
*1050 FILLER_24_245
*1051 FILLER_24_249
*1052 FILLER_24_251
*1053 FILLER_24_253
*1054 FILLER_24_265
*1055 FILLER_24_27
*1056 FILLER_24_277
*1057 FILLER_24_289
*1058 FILLER_24_29
*1059 FILLER_24_3
*1060 FILLER_24_301
*1061 FILLER_24_305
*1062 FILLER_24_307
*1063 FILLER_24_309
*1064 FILLER_24_321
*1065 FILLER_24_333
*1066 FILLER_24_345
*1067 FILLER_24_357
*1068 FILLER_24_361
*1069 FILLER_24_363
*1070 FILLER_24_365
*1071 FILLER_24_377
*1072 FILLER_24_41
*1073 FILLER_24_53
*1074 FILLER_24_65
*1075 FILLER_24_77
*1076 FILLER_24_81
*1077 FILLER_24_83
*1078 FILLER_24_85
*1079 FILLER_24_97
*1080 FILLER_25_101
*1081 FILLER_25_109
*1082 FILLER_25_111
*1083 FILLER_25_113
*1084 FILLER_25_125
*1085 FILLER_25_129
*1086 FILLER_25_132
*1087 FILLER_25_140
*1088 FILLER_25_146
*1089 FILLER_25_15
*1090 FILLER_25_158
*1091 FILLER_25_166
*1092 FILLER_25_169
*1093 FILLER_25_181
*1094 FILLER_25_193
*1095 FILLER_25_205
*1096 FILLER_25_217
*1097 FILLER_25_221
*1098 FILLER_25_223
*1099 FILLER_25_225
*1100 FILLER_25_237
*1101 FILLER_25_249
*1102 FILLER_25_261
*1103 FILLER_25_27
*1104 FILLER_25_273
*1105 FILLER_25_277
*1106 FILLER_25_279
*1107 FILLER_25_281
*1108 FILLER_25_293
*1109 FILLER_25_3
*1110 FILLER_25_305
*1111 FILLER_25_317
*1112 FILLER_25_329
*1113 FILLER_25_333
*1114 FILLER_25_335
*1115 FILLER_25_337
*1116 FILLER_25_349
*1117 FILLER_25_361
*1118 FILLER_25_373
*1119 FILLER_25_39
*1120 FILLER_25_51
*1121 FILLER_25_55
*1122 FILLER_25_57
*1123 FILLER_25_69
*1124 FILLER_25_83
*1125 FILLER_25_89
*1126 FILLER_26_100
*1127 FILLER_26_104
*1128 FILLER_26_106
*1129 FILLER_26_111
*1130 FILLER_26_116
*1131 FILLER_26_124
*1132 FILLER_26_127
*1133 FILLER_26_139
*1134 FILLER_26_144
*1135 FILLER_26_146
*1136 FILLER_26_15
*1137 FILLER_26_151
*1138 FILLER_26_155
*1139 FILLER_26_159
*1140 FILLER_26_169
*1141 FILLER_26_181
*1142 FILLER_26_194
*1143 FILLER_26_197
*1144 FILLER_26_209
*1145 FILLER_26_221
*1146 FILLER_26_233
*1147 FILLER_26_245
*1148 FILLER_26_249
*1149 FILLER_26_251
*1150 FILLER_26_253
*1151 FILLER_26_265
*1152 FILLER_26_27
*1153 FILLER_26_277
*1154 FILLER_26_289
*1155 FILLER_26_29
*1156 FILLER_26_3
*1157 FILLER_26_301
*1158 FILLER_26_305
*1159 FILLER_26_307
*1160 FILLER_26_309
*1161 FILLER_26_321
*1162 FILLER_26_325
*1163 FILLER_26_327
*1164 FILLER_26_330
*1165 FILLER_26_334
*1166 FILLER_26_346
*1167 FILLER_26_358
*1168 FILLER_26_362
*1169 FILLER_26_365
*1170 FILLER_26_377
*1171 FILLER_26_41
*1172 FILLER_26_53
*1173 FILLER_26_65
*1174 FILLER_26_77
*1175 FILLER_26_81
*1176 FILLER_26_83
*1177 FILLER_26_85
*1178 FILLER_26_97
*1179 FILLER_27_101
*1180 FILLER_27_106
*1181 FILLER_27_110
*1182 FILLER_27_113
*1183 FILLER_27_125
*1184 FILLER_27_133
*1185 FILLER_27_137
*1186 FILLER_27_147
*1187 FILLER_27_15
*1188 FILLER_27_156
*1189 FILLER_27_158
*1190 FILLER_27_164
*1191 FILLER_27_172
*1192 FILLER_27_184
*1193 FILLER_27_196
*1194 FILLER_27_208
*1195 FILLER_27_220
*1196 FILLER_27_225
*1197 FILLER_27_237
*1198 FILLER_27_249
*1199 FILLER_27_261
*1200 FILLER_27_27
*1201 FILLER_27_273
*1202 FILLER_27_277
*1203 FILLER_27_279
*1204 FILLER_27_281
*1205 FILLER_27_293
*1206 FILLER_27_3
*1207 FILLER_27_305
*1208 FILLER_27_317
*1209 FILLER_27_329
*1210 FILLER_27_333
*1211 FILLER_27_335
*1212 FILLER_27_339
*1213 FILLER_27_351
*1214 FILLER_27_354
*1215 FILLER_27_366
*1216 FILLER_27_378
*1217 FILLER_27_382
*1218 FILLER_27_384
*1219 FILLER_27_39
*1220 FILLER_27_51
*1221 FILLER_27_55
*1222 FILLER_27_57
*1223 FILLER_27_69
*1224 FILLER_27_73
*1225 FILLER_27_80
*1226 FILLER_27_86
*1227 FILLER_27_94
*1228 FILLER_27_96
*1229 FILLER_27_99
*1230 FILLER_28_101
*1231 FILLER_28_115
*1232 FILLER_28_127
*1233 FILLER_28_131
*1234 FILLER_28_139
*1235 FILLER_28_141
*1236 FILLER_28_145
*1237 FILLER_28_147
*1238 FILLER_28_15
*1239 FILLER_28_151
*1240 FILLER_28_158
*1241 FILLER_28_170
*1242 FILLER_28_182
*1243 FILLER_28_194
*1244 FILLER_28_197
*1245 FILLER_28_209
*1246 FILLER_28_221
*1247 FILLER_28_233
*1248 FILLER_28_245
*1249 FILLER_28_249
*1250 FILLER_28_251
*1251 FILLER_28_253
*1252 FILLER_28_260
*1253 FILLER_28_268
*1254 FILLER_28_27
*1255 FILLER_28_280
*1256 FILLER_28_29
*1257 FILLER_28_292
*1258 FILLER_28_3
*1259 FILLER_28_304
*1260 FILLER_28_309
*1261 FILLER_28_321
*1262 FILLER_28_333
*1263 FILLER_28_337
*1264 FILLER_28_339
*1265 FILLER_28_342
*1266 FILLER_28_354
*1267 FILLER_28_362
*1268 FILLER_28_365
*1269 FILLER_28_377
*1270 FILLER_28_41
*1271 FILLER_28_53
*1272 FILLER_28_65
*1273 FILLER_28_67
*1274 FILLER_28_76
*1275 FILLER_28_85
*1276 FILLER_28_97
*1277 FILLER_29_102
*1278 FILLER_29_104
*1279 FILLER_29_109
*1280 FILLER_29_111
*1281 FILLER_29_113
*1282 FILLER_29_119
*1283 FILLER_29_131
*1284 FILLER_29_133
*1285 FILLER_29_143
*1286 FILLER_29_15
*1287 FILLER_29_155
*1288 FILLER_29_171
*1289 FILLER_29_183
*1290 FILLER_29_195
*1291 FILLER_29_207
*1292 FILLER_29_219
*1293 FILLER_29_223
*1294 FILLER_29_231
*1295 FILLER_29_241
*1296 FILLER_29_245
*1297 FILLER_29_253
*1298 FILLER_29_265
*1299 FILLER_29_27
*1300 FILLER_29_277
*1301 FILLER_29_279
*1302 FILLER_29_293
*1303 FILLER_29_3
*1304 FILLER_29_305
*1305 FILLER_29_317
*1306 FILLER_29_329
*1307 FILLER_29_333
*1308 FILLER_29_335
*1309 FILLER_29_337
*1310 FILLER_29_341
*1311 FILLER_29_343
*1312 FILLER_29_346
*1313 FILLER_29_350
*1314 FILLER_29_362
*1315 FILLER_29_374
*1316 FILLER_29_382
*1317 FILLER_29_384
*1318 FILLER_29_39
*1319 FILLER_29_51
*1320 FILLER_29_55
*1321 FILLER_29_57
*1322 FILLER_29_72
*1323 FILLER_29_85
*1324 FILLER_29_89
*1325 FILLER_29_94
*1326 FILLER_2_141
*1327 FILLER_2_15
*1328 FILLER_2_167
*1329 FILLER_2_179
*1330 FILLER_2_183
*1331 FILLER_2_209
*1332 FILLER_2_221
*1333 FILLER_2_253
*1334 FILLER_2_255
*1335 FILLER_2_27
*1336 FILLER_2_286
*1337 FILLER_2_288
*1338 FILLER_2_3
*1339 FILLER_2_301
*1340 FILLER_2_305
*1341 FILLER_2_307
*1342 FILLER_2_309
*1343 FILLER_2_321
*1344 FILLER_2_333
*1345 FILLER_2_345
*1346 FILLER_2_357
*1347 FILLER_2_361
*1348 FILLER_2_363
*1349 FILLER_2_365
*1350 FILLER_2_377
*1351 FILLER_2_43
*1352 FILLER_2_55
*1353 FILLER_2_67
*1354 FILLER_2_75
*1355 FILLER_2_88
*1356 FILLER_30_109
*1357 FILLER_30_121
*1358 FILLER_30_133
*1359 FILLER_30_137
*1360 FILLER_30_139
*1361 FILLER_30_141
*1362 FILLER_30_157
*1363 FILLER_30_161
*1364 FILLER_30_165
*1365 FILLER_30_169
*1366 FILLER_30_171
*1367 FILLER_30_175
*1368 FILLER_30_179
*1369 FILLER_30_181
*1370 FILLER_30_197
*1371 FILLER_30_209
*1372 FILLER_30_221
*1373 FILLER_30_229
*1374 FILLER_30_236
*1375 FILLER_30_24
*1376 FILLER_30_265
*1377 FILLER_30_277
*1378 FILLER_30_289
*1379 FILLER_30_3
*1380 FILLER_30_301
*1381 FILLER_30_305
*1382 FILLER_30_307
*1383 FILLER_30_309
*1384 FILLER_30_321
*1385 FILLER_30_333
*1386 FILLER_30_345
*1387 FILLER_30_357
*1388 FILLER_30_361
*1389 FILLER_30_363
*1390 FILLER_30_365
*1391 FILLER_30_377
*1392 FILLER_30_43
*1393 FILLER_30_55
*1394 FILLER_30_7
*1395 FILLER_30_77
*1396 FILLER_30_79
*1397 FILLER_30_85
*1398 FILLER_30_9
*1399 FILLER_30_97
*1400 FILLER_31_121
*1401 FILLER_31_129
*1402 FILLER_31_139
*1403 FILLER_31_152
*1404 FILLER_31_177
*1405 FILLER_31_185
*1406 FILLER_31_189
*1407 FILLER_31_201
*1408 FILLER_31_213
*1409 FILLER_31_221
*1410 FILLER_31_223
*1411 FILLER_31_225
*1412 FILLER_31_238
*1413 FILLER_31_24
*1414 FILLER_31_270
*1415 FILLER_31_278
*1416 FILLER_31_281
*1417 FILLER_31_293
*1418 FILLER_31_3
*1419 FILLER_31_305
*1420 FILLER_31_317
*1421 FILLER_31_329
*1422 FILLER_31_333
*1423 FILLER_31_335
*1424 FILLER_31_337
*1425 FILLER_31_349
*1426 FILLER_31_36
*1427 FILLER_31_361
*1428 FILLER_31_373
*1429 FILLER_31_48
*1430 FILLER_31_57
*1431 FILLER_31_61
*1432 FILLER_31_63
*1433 FILLER_31_7
*1434 FILLER_31_73
*1435 FILLER_31_75
*1436 FILLER_31_89
*1437 FILLER_31_9
*1438 FILLER_31_97
*1439 FILLER_32_103
*1440 FILLER_32_105
*1441 FILLER_32_11
*1442 FILLER_32_115
*1443 FILLER_32_127
*1444 FILLER_32_13
*1445 FILLER_32_139
*1446 FILLER_32_141
*1447 FILLER_32_176
*1448 FILLER_32_188
*1449 FILLER_32_197
*1450 FILLER_32_209
*1451 FILLER_32_221
*1452 FILLER_32_229
*1453 FILLER_32_242
*1454 FILLER_32_250
*1455 FILLER_32_253
*1456 FILLER_32_265
*1457 FILLER_32_277
*1458 FILLER_32_289
*1459 FILLER_32_3
*1460 FILLER_32_302
*1461 FILLER_32_306
*1462 FILLER_32_323
*1463 FILLER_32_335
*1464 FILLER_32_347
*1465 FILLER_32_359
*1466 FILLER_32_363
*1467 FILLER_32_365
*1468 FILLER_32_377
*1469 FILLER_32_43
*1470 FILLER_32_55
*1471 FILLER_32_67
*1472 FILLER_32_81
*1473 FILLER_32_83
*1474 FILLER_32_85
*1475 FILLER_33_101
*1476 FILLER_33_109
*1477 FILLER_33_111
*1478 FILLER_33_113
*1479 FILLER_33_125
*1480 FILLER_33_137
*1481 FILLER_33_149
*1482 FILLER_33_15
*1483 FILLER_33_153
*1484 FILLER_33_156
*1485 FILLER_33_160
*1486 FILLER_33_164
*1487 FILLER_33_171
*1488 FILLER_33_183
*1489 FILLER_33_195
*1490 FILLER_33_207
*1491 FILLER_33_219
*1492 FILLER_33_223
*1493 FILLER_33_225
*1494 FILLER_33_233
*1495 FILLER_33_235
*1496 FILLER_33_248
*1497 FILLER_33_260
*1498 FILLER_33_264
*1499 FILLER_33_277
*1500 FILLER_33_279
*1501 FILLER_33_281
*1502 FILLER_33_3
*1503 FILLER_33_30
*1504 FILLER_33_307
*1505 FILLER_33_319
*1506 FILLER_33_331
*1507 FILLER_33_335
*1508 FILLER_33_337
*1509 FILLER_33_349
*1510 FILLER_33_361
*1511 FILLER_33_373
*1512 FILLER_33_42
*1513 FILLER_33_54
*1514 FILLER_33_57
*1515 FILLER_33_69
*1516 FILLER_33_73
*1517 FILLER_33_77
*1518 FILLER_33_89
*1519 FILLER_34_109
*1520 FILLER_34_121
*1521 FILLER_34_141
*1522 FILLER_34_15
*1523 FILLER_34_153
*1524 FILLER_34_181
*1525 FILLER_34_193
*1526 FILLER_34_195
*1527 FILLER_34_197
*1528 FILLER_34_209
*1529 FILLER_34_221
*1530 FILLER_34_233
*1531 FILLER_34_245
*1532 FILLER_34_249
*1533 FILLER_34_251
*1534 FILLER_34_253
*1535 FILLER_34_265
*1536 FILLER_34_27
*1537 FILLER_34_278
*1538 FILLER_34_286
*1539 FILLER_34_29
*1540 FILLER_34_299
*1541 FILLER_34_3
*1542 FILLER_34_307
*1543 FILLER_34_309
*1544 FILLER_34_317
*1545 FILLER_34_333
*1546 FILLER_34_345
*1547 FILLER_34_357
*1548 FILLER_34_361
*1549 FILLER_34_363
*1550 FILLER_34_365
*1551 FILLER_34_377
*1552 FILLER_34_41
*1553 FILLER_34_53
*1554 FILLER_34_65
*1555 FILLER_34_69
*1556 FILLER_34_82
*1557 FILLER_34_85
*1558 FILLER_34_97
*1559 FILLER_35_122
*1560 FILLER_35_126
*1561 FILLER_35_131
*1562 FILLER_35_15
*1563 FILLER_35_151
*1564 FILLER_35_169
*1565 FILLER_35_181
*1566 FILLER_35_185
*1567 FILLER_35_192
*1568 FILLER_35_204
*1569 FILLER_35_222
*1570 FILLER_35_225
*1571 FILLER_35_237
*1572 FILLER_35_249
*1573 FILLER_35_261
*1574 FILLER_35_27
*1575 FILLER_35_273
*1576 FILLER_35_277
*1577 FILLER_35_279
*1578 FILLER_35_281
*1579 FILLER_35_293
*1580 FILLER_35_3
*1581 FILLER_35_305
*1582 FILLER_35_317
*1583 FILLER_35_329
*1584 FILLER_35_333
*1585 FILLER_35_335
*1586 FILLER_35_337
*1587 FILLER_35_349
*1588 FILLER_35_361
*1589 FILLER_35_373
*1590 FILLER_35_39
*1591 FILLER_35_51
*1592 FILLER_35_55
*1593 FILLER_35_57
*1594 FILLER_35_76
*1595 FILLER_35_87
*1596 FILLER_35_99
*1597 FILLER_36_109
*1598 FILLER_36_11
*1599 FILLER_36_115
*1600 FILLER_36_13
*1601 FILLER_36_132
*1602 FILLER_36_141
*1603 FILLER_36_151
*1604 FILLER_36_170
*1605 FILLER_36_182
*1606 FILLER_36_197
*1607 FILLER_36_209
*1608 FILLER_36_234
*1609 FILLER_36_241
*1610 FILLER_36_248
*1611 FILLER_36_259
*1612 FILLER_36_267
*1613 FILLER_36_269
*1614 FILLER_36_276
*1615 FILLER_36_280
*1616 FILLER_36_287
*1617 FILLER_36_29
*1618 FILLER_36_299
*1619 FILLER_36_3
*1620 FILLER_36_307
*1621 FILLER_36_309
*1622 FILLER_36_321
*1623 FILLER_36_333
*1624 FILLER_36_345
*1625 FILLER_36_349
*1626 FILLER_36_365
*1627 FILLER_36_377
*1628 FILLER_36_47
*1629 FILLER_36_59
*1630 FILLER_36_61
*1631 FILLER_36_75
*1632 FILLER_36_96
*1633 FILLER_36_98
*1634 FILLER_37_105
*1635 FILLER_37_113
*1636 FILLER_37_127
*1637 FILLER_37_129
*1638 FILLER_37_140
*1639 FILLER_37_164
*1640 FILLER_37_169
*1641 FILLER_37_172
*1642 FILLER_37_176
*1643 FILLER_37_179
*1644 FILLER_37_183
*1645 FILLER_37_209
*1646 FILLER_37_222
*1647 FILLER_37_24
*1648 FILLER_37_261
*1649 FILLER_37_265
*1650 FILLER_37_267
*1651 FILLER_37_293
*1652 FILLER_37_3
*1653 FILLER_37_329
*1654 FILLER_37_333
*1655 FILLER_37_335
*1656 FILLER_37_365
*1657 FILLER_37_377
*1658 FILLER_37_39
*1659 FILLER_37_41
*1660 FILLER_37_57
*1661 FILLER_37_69
*1662 FILLER_37_7
*1663 FILLER_37_84
*1664 FILLER_37_88
*1665 FILLER_37_9
*1666 FILLER_37_92
*1667 FILLER_38_111
*1668 FILLER_38_113
*1669 FILLER_38_125
*1670 FILLER_38_139
*1671 FILLER_38_141
*1672 FILLER_38_145
*1673 FILLER_38_147
*1674 FILLER_38_15
*1675 FILLER_38_150
*1676 FILLER_38_162
*1677 FILLER_38_166
*1678 FILLER_38_169
*1679 FILLER_38_181
*1680 FILLER_38_189
*1681 FILLER_38_194
*1682 FILLER_38_209
*1683 FILLER_38_221
*1684 FILLER_38_223
*1685 FILLER_38_225
*1686 FILLER_38_237
*1687 FILLER_38_249
*1688 FILLER_38_251
*1689 FILLER_38_265
*1690 FILLER_38_27
*1691 FILLER_38_277
*1692 FILLER_38_279
*1693 FILLER_38_281
*1694 FILLER_38_289
*1695 FILLER_38_29
*1696 FILLER_38_3
*1697 FILLER_38_303
*1698 FILLER_38_309
*1699 FILLER_38_321
*1700 FILLER_38_351
*1701 FILLER_38_363
*1702 FILLER_38_365
*1703 FILLER_38_377
*1704 FILLER_38_51
*1705 FILLER_38_55
*1706 FILLER_38_57
*1707 FILLER_38_69
*1708 FILLER_38_73
*1709 FILLER_38_79
*1710 FILLER_38_83
*1711 FILLER_38_85
*1712 FILLER_38_99
*1713 FILLER_3_106
*1714 FILLER_3_110
*1715 FILLER_3_113
*1716 FILLER_3_121
*1717 FILLER_3_123
*1718 FILLER_3_132
*1719 FILLER_3_136
*1720 FILLER_3_15
*1721 FILLER_3_153
*1722 FILLER_3_157
*1723 FILLER_3_166
*1724 FILLER_3_169
*1725 FILLER_3_181
*1726 FILLER_3_185
*1727 FILLER_3_206
*1728 FILLER_3_218
*1729 FILLER_3_222
*1730 FILLER_3_225
*1731 FILLER_3_227
*1732 FILLER_3_240
*1733 FILLER_3_252
*1734 FILLER_3_264
*1735 FILLER_3_27
*1736 FILLER_3_276
*1737 FILLER_3_281
*1738 FILLER_3_283
*1739 FILLER_3_290
*1740 FILLER_3_3
*1741 FILLER_3_302
*1742 FILLER_3_314
*1743 FILLER_3_326
*1744 FILLER_3_334
*1745 FILLER_3_337
*1746 FILLER_3_349
*1747 FILLER_3_35
*1748 FILLER_3_361
*1749 FILLER_3_37
*1750 FILLER_3_373
*1751 FILLER_3_40
*1752 FILLER_3_52
*1753 FILLER_3_57
*1754 FILLER_3_69
*1755 FILLER_3_73
*1756 FILLER_4_109
*1757 FILLER_4_121
*1758 FILLER_4_136
*1759 FILLER_4_141
*1760 FILLER_4_15
*1761 FILLER_4_153
*1762 FILLER_4_161
*1763 FILLER_4_163
*1764 FILLER_4_181
*1765 FILLER_4_194
*1766 FILLER_4_197
*1767 FILLER_4_209
*1768 FILLER_4_221
*1769 FILLER_4_233
*1770 FILLER_4_245
*1771 FILLER_4_249
*1772 FILLER_4_251
*1773 FILLER_4_253
*1774 FILLER_4_265
*1775 FILLER_4_27
*1776 FILLER_4_29
*1777 FILLER_4_3
*1778 FILLER_4_305
*1779 FILLER_4_307
*1780 FILLER_4_309
*1781 FILLER_4_321
*1782 FILLER_4_333
*1783 FILLER_4_345
*1784 FILLER_4_357
*1785 FILLER_4_361
*1786 FILLER_4_363
*1787 FILLER_4_365
*1788 FILLER_4_377
*1789 FILLER_4_41
*1790 FILLER_4_53
*1791 FILLER_4_65
*1792 FILLER_4_77
*1793 FILLER_4_81
*1794 FILLER_4_83
*1795 FILLER_4_85
*1796 FILLER_4_97
*1797 FILLER_5_110
*1798 FILLER_5_113
*1799 FILLER_5_121
*1800 FILLER_5_123
*1801 FILLER_5_133
*1802 FILLER_5_145
*1803 FILLER_5_15
*1804 FILLER_5_157
*1805 FILLER_5_165
*1806 FILLER_5_167
*1807 FILLER_5_169
*1808 FILLER_5_181
*1809 FILLER_5_189
*1810 FILLER_5_201
*1811 FILLER_5_213
*1812 FILLER_5_221
*1813 FILLER_5_223
*1814 FILLER_5_225
*1815 FILLER_5_229
*1816 FILLER_5_242
*1817 FILLER_5_254
*1818 FILLER_5_258
*1819 FILLER_5_27
*1820 FILLER_5_272
*1821 FILLER_5_281
*1822 FILLER_5_293
*1823 FILLER_5_3
*1824 FILLER_5_305
*1825 FILLER_5_317
*1826 FILLER_5_329
*1827 FILLER_5_333
*1828 FILLER_5_335
*1829 FILLER_5_337
*1830 FILLER_5_349
*1831 FILLER_5_361
*1832 FILLER_5_365
*1833 FILLER_5_367
*1834 FILLER_5_370
*1835 FILLER_5_382
*1836 FILLER_5_384
*1837 FILLER_5_39
*1838 FILLER_5_47
*1839 FILLER_5_50
*1840 FILLER_5_54
*1841 FILLER_5_57
*1842 FILLER_5_59
*1843 FILLER_5_62
*1844 FILLER_5_70
*1845 FILLER_5_74
*1846 FILLER_5_86
*1847 FILLER_5_98
*1848 FILLER_6_109
*1849 FILLER_6_121
*1850 FILLER_6_133
*1851 FILLER_6_137
*1852 FILLER_6_139
*1853 FILLER_6_141
*1854 FILLER_6_15
*1855 FILLER_6_153
*1856 FILLER_6_169
*1857 FILLER_6_181
*1858 FILLER_6_193
*1859 FILLER_6_195
*1860 FILLER_6_197
*1861 FILLER_6_201
*1862 FILLER_6_239
*1863 FILLER_6_251
*1864 FILLER_6_253
*1865 FILLER_6_265
*1866 FILLER_6_267
*1867 FILLER_6_27
*1868 FILLER_6_29
*1869 FILLER_6_292
*1870 FILLER_6_3
*1871 FILLER_6_304
*1872 FILLER_6_309
*1873 FILLER_6_321
*1874 FILLER_6_333
*1875 FILLER_6_345
*1876 FILLER_6_357
*1877 FILLER_6_361
*1878 FILLER_6_363
*1879 FILLER_6_365
*1880 FILLER_6_377
*1881 FILLER_6_41
*1882 FILLER_6_53
*1883 FILLER_6_65
*1884 FILLER_6_77
*1885 FILLER_6_81
*1886 FILLER_6_83
*1887 FILLER_6_85
*1888 FILLER_6_97
*1889 FILLER_7_105
*1890 FILLER_7_109
*1891 FILLER_7_111
*1892 FILLER_7_113
*1893 FILLER_7_125
*1894 FILLER_7_136
*1895 FILLER_7_148
*1896 FILLER_7_15
*1897 FILLER_7_160
*1898 FILLER_7_169
*1899 FILLER_7_181
*1900 FILLER_7_193
*1901 FILLER_7_205
*1902 FILLER_7_207
*1903 FILLER_7_220
*1904 FILLER_7_237
*1905 FILLER_7_249
*1906 FILLER_7_261
*1907 FILLER_7_263
*1908 FILLER_7_27
*1909 FILLER_7_270
*1910 FILLER_7_278
*1911 FILLER_7_281
*1912 FILLER_7_283
*1913 FILLER_7_296
*1914 FILLER_7_3
*1915 FILLER_7_308
*1916 FILLER_7_320
*1917 FILLER_7_332
*1918 FILLER_7_337
*1919 FILLER_7_349
*1920 FILLER_7_361
*1921 FILLER_7_373
*1922 FILLER_7_39
*1923 FILLER_7_51
*1924 FILLER_7_55
*1925 FILLER_7_57
*1926 FILLER_7_69
*1927 FILLER_7_81
*1928 FILLER_7_93
*1929 FILLER_8_109
*1930 FILLER_8_121
*1931 FILLER_8_133
*1932 FILLER_8_137
*1933 FILLER_8_141
*1934 FILLER_8_15
*1935 FILLER_8_153
*1936 FILLER_8_165
*1937 FILLER_8_189
*1938 FILLER_8_193
*1939 FILLER_8_195
*1940 FILLER_8_197
*1941 FILLER_8_223
*1942 FILLER_8_225
*1943 FILLER_8_244
*1944 FILLER_8_253
*1945 FILLER_8_261
*1946 FILLER_8_263
*1947 FILLER_8_27
*1948 FILLER_8_288
*1949 FILLER_8_29
*1950 FILLER_8_3
*1951 FILLER_8_300
*1952 FILLER_8_309
*1953 FILLER_8_321
*1954 FILLER_8_333
*1955 FILLER_8_345
*1956 FILLER_8_357
*1957 FILLER_8_361
*1958 FILLER_8_363
*1959 FILLER_8_365
*1960 FILLER_8_377
*1961 FILLER_8_41
*1962 FILLER_8_53
*1963 FILLER_8_65
*1964 FILLER_8_77
*1965 FILLER_8_81
*1966 FILLER_8_83
*1967 FILLER_8_85
*1968 FILLER_8_97
*1969 FILLER_9_105
*1970 FILLER_9_109
*1971 FILLER_9_111
*1972 FILLER_9_113
*1973 FILLER_9_125
*1974 FILLER_9_137
*1975 FILLER_9_149
*1976 FILLER_9_15
*1977 FILLER_9_161
*1978 FILLER_9_165
*1979 FILLER_9_167
*1980 FILLER_9_169
*1981 FILLER_9_173
*1982 FILLER_9_177
*1983 FILLER_9_184
*1984 FILLER_9_196
*1985 FILLER_9_208
*1986 FILLER_9_220
*1987 FILLER_9_225
*1988 FILLER_9_237
*1989 FILLER_9_249
*1990 FILLER_9_261
*1991 FILLER_9_265
*1992 FILLER_9_267
*1993 FILLER_9_27
*1994 FILLER_9_293
*1995 FILLER_9_3
*1996 FILLER_9_305
*1997 FILLER_9_317
*1998 FILLER_9_321
*1999 FILLER_9_323
*2000 FILLER_9_326
*2001 FILLER_9_334
*2002 FILLER_9_339
*2003 FILLER_9_351
*2004 FILLER_9_363
*2005 FILLER_9_366
*2006 FILLER_9_378
*2007 FILLER_9_382
*2008 FILLER_9_384
*2009 FILLER_9_39
*2010 FILLER_9_51
*2011 FILLER_9_55
*2012 FILLER_9_57
*2013 FILLER_9_69
*2014 FILLER_9_81
*2015 FILLER_9_93
*2016 PHY_EDGE_ROW_0_Left_39
*2017 PHY_EDGE_ROW_0_Right_0
*2018 PHY_EDGE_ROW_10_Left_49
*2019 PHY_EDGE_ROW_10_Right_10
*2020 PHY_EDGE_ROW_11_Left_50
*2021 PHY_EDGE_ROW_11_Right_11
*2022 PHY_EDGE_ROW_12_Left_51
*2023 PHY_EDGE_ROW_12_Right_12
*2024 PHY_EDGE_ROW_13_Left_52
*2025 PHY_EDGE_ROW_13_Right_13
*2026 PHY_EDGE_ROW_14_Left_53
*2027 PHY_EDGE_ROW_14_Right_14
*2028 PHY_EDGE_ROW_15_Left_54
*2029 PHY_EDGE_ROW_15_Right_15
*2030 PHY_EDGE_ROW_16_Left_55
*2031 PHY_EDGE_ROW_16_Right_16
*2032 PHY_EDGE_ROW_17_Left_56
*2033 PHY_EDGE_ROW_17_Right_17
*2034 PHY_EDGE_ROW_18_Left_57
*2035 PHY_EDGE_ROW_18_Right_18
*2036 PHY_EDGE_ROW_19_Left_58
*2037 PHY_EDGE_ROW_19_Right_19
*2038 PHY_EDGE_ROW_1_Left_40
*2039 PHY_EDGE_ROW_1_Right_1
*2040 PHY_EDGE_ROW_20_Left_59
*2041 PHY_EDGE_ROW_20_Right_20
*2042 PHY_EDGE_ROW_21_Left_60
*2043 PHY_EDGE_ROW_21_Right_21
*2044 PHY_EDGE_ROW_22_Left_61
*2045 PHY_EDGE_ROW_22_Right_22
*2046 PHY_EDGE_ROW_23_Left_62
*2047 PHY_EDGE_ROW_23_Right_23
*2048 PHY_EDGE_ROW_24_Left_63
*2049 PHY_EDGE_ROW_24_Right_24
*2050 PHY_EDGE_ROW_25_Left_64
*2051 PHY_EDGE_ROW_25_Right_25
*2052 PHY_EDGE_ROW_26_Left_65
*2053 PHY_EDGE_ROW_26_Right_26
*2054 PHY_EDGE_ROW_27_Left_66
*2055 PHY_EDGE_ROW_27_Right_27
*2056 PHY_EDGE_ROW_28_Left_67
*2057 PHY_EDGE_ROW_28_Right_28
*2058 PHY_EDGE_ROW_29_Left_68
*2059 PHY_EDGE_ROW_29_Right_29
*2060 PHY_EDGE_ROW_2_Left_41
*2061 PHY_EDGE_ROW_2_Right_2
*2062 PHY_EDGE_ROW_30_Left_69
*2063 PHY_EDGE_ROW_30_Right_30
*2064 PHY_EDGE_ROW_31_Left_70
*2065 PHY_EDGE_ROW_31_Right_31
*2066 PHY_EDGE_ROW_32_Left_71
*2067 PHY_EDGE_ROW_32_Right_32
*2068 PHY_EDGE_ROW_33_Left_72
*2069 PHY_EDGE_ROW_33_Right_33
*2070 PHY_EDGE_ROW_34_Left_73
*2071 PHY_EDGE_ROW_34_Right_34
*2072 PHY_EDGE_ROW_35_Left_74
*2073 PHY_EDGE_ROW_35_Right_35
*2074 PHY_EDGE_ROW_36_Left_75
*2075 PHY_EDGE_ROW_36_Right_36
*2076 PHY_EDGE_ROW_37_Left_76
*2077 PHY_EDGE_ROW_37_Right_37
*2078 PHY_EDGE_ROW_38_Left_77
*2079 PHY_EDGE_ROW_38_Right_38
*2080 PHY_EDGE_ROW_3_Left_42
*2081 PHY_EDGE_ROW_3_Right_3
*2082 PHY_EDGE_ROW_4_Left_43
*2083 PHY_EDGE_ROW_4_Right_4
*2084 PHY_EDGE_ROW_5_Left_44
*2085 PHY_EDGE_ROW_5_Right_5
*2086 PHY_EDGE_ROW_6_Left_45
*2087 PHY_EDGE_ROW_6_Right_6
*2088 PHY_EDGE_ROW_7_Left_46
*2089 PHY_EDGE_ROW_7_Right_7
*2090 PHY_EDGE_ROW_8_Left_47
*2091 PHY_EDGE_ROW_8_Right_8
*2092 PHY_EDGE_ROW_9_Left_48
*2093 PHY_EDGE_ROW_9_Right_9
*2094 TAP_TAPCELL_ROW_0_78
*2095 TAP_TAPCELL_ROW_0_79
*2096 TAP_TAPCELL_ROW_0_80
*2097 TAP_TAPCELL_ROW_0_81
*2098 TAP_TAPCELL_ROW_0_82
*2099 TAP_TAPCELL_ROW_0_83
*2100 TAP_TAPCELL_ROW_0_84
*2101 TAP_TAPCELL_ROW_0_85
*2102 TAP_TAPCELL_ROW_0_86
*2103 TAP_TAPCELL_ROW_0_87
*2104 TAP_TAPCELL_ROW_0_88
*2105 TAP_TAPCELL_ROW_0_89
*2106 TAP_TAPCELL_ROW_0_90
*2107 TAP_TAPCELL_ROW_10_149
*2108 TAP_TAPCELL_ROW_10_150
*2109 TAP_TAPCELL_ROW_10_151
*2110 TAP_TAPCELL_ROW_10_152
*2111 TAP_TAPCELL_ROW_10_153
*2112 TAP_TAPCELL_ROW_10_154
*2113 TAP_TAPCELL_ROW_10_155
*2114 TAP_TAPCELL_ROW_11_156
*2115 TAP_TAPCELL_ROW_11_157
*2116 TAP_TAPCELL_ROW_11_158
*2117 TAP_TAPCELL_ROW_11_159
*2118 TAP_TAPCELL_ROW_11_160
*2119 TAP_TAPCELL_ROW_11_161
*2120 TAP_TAPCELL_ROW_12_162
*2121 TAP_TAPCELL_ROW_12_163
*2122 TAP_TAPCELL_ROW_12_164
*2123 TAP_TAPCELL_ROW_12_165
*2124 TAP_TAPCELL_ROW_12_166
*2125 TAP_TAPCELL_ROW_12_167
*2126 TAP_TAPCELL_ROW_12_168
*2127 TAP_TAPCELL_ROW_13_169
*2128 TAP_TAPCELL_ROW_13_170
*2129 TAP_TAPCELL_ROW_13_171
*2130 TAP_TAPCELL_ROW_13_172
*2131 TAP_TAPCELL_ROW_13_173
*2132 TAP_TAPCELL_ROW_13_174
*2133 TAP_TAPCELL_ROW_14_175
*2134 TAP_TAPCELL_ROW_14_176
*2135 TAP_TAPCELL_ROW_14_177
*2136 TAP_TAPCELL_ROW_14_178
*2137 TAP_TAPCELL_ROW_14_179
*2138 TAP_TAPCELL_ROW_14_180
*2139 TAP_TAPCELL_ROW_14_181
*2140 TAP_TAPCELL_ROW_15_182
*2141 TAP_TAPCELL_ROW_15_183
*2142 TAP_TAPCELL_ROW_15_184
*2143 TAP_TAPCELL_ROW_15_185
*2144 TAP_TAPCELL_ROW_15_186
*2145 TAP_TAPCELL_ROW_15_187
*2146 TAP_TAPCELL_ROW_16_188
*2147 TAP_TAPCELL_ROW_16_189
*2148 TAP_TAPCELL_ROW_16_190
*2149 TAP_TAPCELL_ROW_16_191
*2150 TAP_TAPCELL_ROW_16_192
*2151 TAP_TAPCELL_ROW_16_193
*2152 TAP_TAPCELL_ROW_16_194
*2153 TAP_TAPCELL_ROW_17_195
*2154 TAP_TAPCELL_ROW_17_196
*2155 TAP_TAPCELL_ROW_17_197
*2156 TAP_TAPCELL_ROW_17_198
*2157 TAP_TAPCELL_ROW_17_199
*2158 TAP_TAPCELL_ROW_17_200
*2159 TAP_TAPCELL_ROW_18_201
*2160 TAP_TAPCELL_ROW_18_202
*2161 TAP_TAPCELL_ROW_18_203
*2162 TAP_TAPCELL_ROW_18_204
*2163 TAP_TAPCELL_ROW_18_205
*2164 TAP_TAPCELL_ROW_18_206
*2165 TAP_TAPCELL_ROW_18_207
*2166 TAP_TAPCELL_ROW_19_208
*2167 TAP_TAPCELL_ROW_19_209
*2168 TAP_TAPCELL_ROW_19_210
*2169 TAP_TAPCELL_ROW_19_211
*2170 TAP_TAPCELL_ROW_19_212
*2171 TAP_TAPCELL_ROW_19_213
*2172 TAP_TAPCELL_ROW_1_91
*2173 TAP_TAPCELL_ROW_1_92
*2174 TAP_TAPCELL_ROW_1_93
*2175 TAP_TAPCELL_ROW_1_94
*2176 TAP_TAPCELL_ROW_1_95
*2177 TAP_TAPCELL_ROW_1_96
*2178 TAP_TAPCELL_ROW_20_214
*2179 TAP_TAPCELL_ROW_20_215
*2180 TAP_TAPCELL_ROW_20_216
*2181 TAP_TAPCELL_ROW_20_217
*2182 TAP_TAPCELL_ROW_20_218
*2183 TAP_TAPCELL_ROW_20_219
*2184 TAP_TAPCELL_ROW_20_220
*2185 TAP_TAPCELL_ROW_21_221
*2186 TAP_TAPCELL_ROW_21_222
*2187 TAP_TAPCELL_ROW_21_223
*2188 TAP_TAPCELL_ROW_21_224
*2189 TAP_TAPCELL_ROW_21_225
*2190 TAP_TAPCELL_ROW_21_226
*2191 TAP_TAPCELL_ROW_22_227
*2192 TAP_TAPCELL_ROW_22_228
*2193 TAP_TAPCELL_ROW_22_229
*2194 TAP_TAPCELL_ROW_22_230
*2195 TAP_TAPCELL_ROW_22_231
*2196 TAP_TAPCELL_ROW_22_232
*2197 TAP_TAPCELL_ROW_22_233
*2198 TAP_TAPCELL_ROW_23_234
*2199 TAP_TAPCELL_ROW_23_235
*2200 TAP_TAPCELL_ROW_23_236
*2201 TAP_TAPCELL_ROW_23_237
*2202 TAP_TAPCELL_ROW_23_238
*2203 TAP_TAPCELL_ROW_23_239
*2204 TAP_TAPCELL_ROW_24_240
*2205 TAP_TAPCELL_ROW_24_241
*2206 TAP_TAPCELL_ROW_24_242
*2207 TAP_TAPCELL_ROW_24_243
*2208 TAP_TAPCELL_ROW_24_244
*2209 TAP_TAPCELL_ROW_24_245
*2210 TAP_TAPCELL_ROW_24_246
*2211 TAP_TAPCELL_ROW_25_247
*2212 TAP_TAPCELL_ROW_25_248
*2213 TAP_TAPCELL_ROW_25_249
*2214 TAP_TAPCELL_ROW_25_250
*2215 TAP_TAPCELL_ROW_25_251
*2216 TAP_TAPCELL_ROW_25_252
*2217 TAP_TAPCELL_ROW_26_253
*2218 TAP_TAPCELL_ROW_26_254
*2219 TAP_TAPCELL_ROW_26_255
*2220 TAP_TAPCELL_ROW_26_256
*2221 TAP_TAPCELL_ROW_26_257
*2222 TAP_TAPCELL_ROW_26_258
*2223 TAP_TAPCELL_ROW_26_259
*2224 TAP_TAPCELL_ROW_27_260
*2225 TAP_TAPCELL_ROW_27_261
*2226 TAP_TAPCELL_ROW_27_262
*2227 TAP_TAPCELL_ROW_27_263
*2228 TAP_TAPCELL_ROW_27_264
*2229 TAP_TAPCELL_ROW_27_265
*2230 TAP_TAPCELL_ROW_28_266
*2231 TAP_TAPCELL_ROW_28_267
*2232 TAP_TAPCELL_ROW_28_268
*2233 TAP_TAPCELL_ROW_28_269
*2234 TAP_TAPCELL_ROW_28_270
*2235 TAP_TAPCELL_ROW_28_271
*2236 TAP_TAPCELL_ROW_28_272
*2237 TAP_TAPCELL_ROW_29_273
*2238 TAP_TAPCELL_ROW_29_274
*2239 TAP_TAPCELL_ROW_29_275
*2240 TAP_TAPCELL_ROW_29_276
*2241 TAP_TAPCELL_ROW_29_277
*2242 TAP_TAPCELL_ROW_29_278
*2243 TAP_TAPCELL_ROW_2_100
*2244 TAP_TAPCELL_ROW_2_101
*2245 TAP_TAPCELL_ROW_2_102
*2246 TAP_TAPCELL_ROW_2_103
*2247 TAP_TAPCELL_ROW_2_97
*2248 TAP_TAPCELL_ROW_2_98
*2249 TAP_TAPCELL_ROW_2_99
*2250 TAP_TAPCELL_ROW_30_279
*2251 TAP_TAPCELL_ROW_30_280
*2252 TAP_TAPCELL_ROW_30_281
*2253 TAP_TAPCELL_ROW_30_282
*2254 TAP_TAPCELL_ROW_30_283
*2255 TAP_TAPCELL_ROW_30_284
*2256 TAP_TAPCELL_ROW_30_285
*2257 TAP_TAPCELL_ROW_31_286
*2258 TAP_TAPCELL_ROW_31_287
*2259 TAP_TAPCELL_ROW_31_288
*2260 TAP_TAPCELL_ROW_31_289
*2261 TAP_TAPCELL_ROW_31_290
*2262 TAP_TAPCELL_ROW_31_291
*2263 TAP_TAPCELL_ROW_32_292
*2264 TAP_TAPCELL_ROW_32_293
*2265 TAP_TAPCELL_ROW_32_294
*2266 TAP_TAPCELL_ROW_32_295
*2267 TAP_TAPCELL_ROW_32_296
*2268 TAP_TAPCELL_ROW_32_297
*2269 TAP_TAPCELL_ROW_32_298
*2270 TAP_TAPCELL_ROW_33_299
*2271 TAP_TAPCELL_ROW_33_300
*2272 TAP_TAPCELL_ROW_33_301
*2273 TAP_TAPCELL_ROW_33_302
*2274 TAP_TAPCELL_ROW_33_303
*2275 TAP_TAPCELL_ROW_33_304
*2276 TAP_TAPCELL_ROW_34_305
*2277 TAP_TAPCELL_ROW_34_306
*2278 TAP_TAPCELL_ROW_34_307
*2279 TAP_TAPCELL_ROW_34_308
*2280 TAP_TAPCELL_ROW_34_309
*2281 TAP_TAPCELL_ROW_34_310
*2282 TAP_TAPCELL_ROW_34_311
*2283 TAP_TAPCELL_ROW_35_312
*2284 TAP_TAPCELL_ROW_35_313
*2285 TAP_TAPCELL_ROW_35_314
*2286 TAP_TAPCELL_ROW_35_315
*2287 TAP_TAPCELL_ROW_35_316
*2288 TAP_TAPCELL_ROW_35_317
*2289 TAP_TAPCELL_ROW_36_318
*2290 TAP_TAPCELL_ROW_36_319
*2291 TAP_TAPCELL_ROW_36_320
*2292 TAP_TAPCELL_ROW_36_321
*2293 TAP_TAPCELL_ROW_36_322
*2294 TAP_TAPCELL_ROW_36_323
*2295 TAP_TAPCELL_ROW_36_324
*2296 TAP_TAPCELL_ROW_37_325
*2297 TAP_TAPCELL_ROW_37_326
*2298 TAP_TAPCELL_ROW_37_327
*2299 TAP_TAPCELL_ROW_37_328
*2300 TAP_TAPCELL_ROW_37_329
*2301 TAP_TAPCELL_ROW_37_330
*2302 TAP_TAPCELL_ROW_38_331
*2303 TAP_TAPCELL_ROW_38_332
*2304 TAP_TAPCELL_ROW_38_333
*2305 TAP_TAPCELL_ROW_38_334
*2306 TAP_TAPCELL_ROW_38_335
*2307 TAP_TAPCELL_ROW_38_336
*2308 TAP_TAPCELL_ROW_38_337
*2309 TAP_TAPCELL_ROW_38_338
*2310 TAP_TAPCELL_ROW_38_339
*2311 TAP_TAPCELL_ROW_38_340
*2312 TAP_TAPCELL_ROW_38_341
*2313 TAP_TAPCELL_ROW_38_342
*2314 TAP_TAPCELL_ROW_38_343
*2315 TAP_TAPCELL_ROW_3_104
*2316 TAP_TAPCELL_ROW_3_105
*2317 TAP_TAPCELL_ROW_3_106
*2318 TAP_TAPCELL_ROW_3_107
*2319 TAP_TAPCELL_ROW_3_108
*2320 TAP_TAPCELL_ROW_3_109
*2321 TAP_TAPCELL_ROW_4_110
*2322 TAP_TAPCELL_ROW_4_111
*2323 TAP_TAPCELL_ROW_4_112
*2324 TAP_TAPCELL_ROW_4_113
*2325 TAP_TAPCELL_ROW_4_114
*2326 TAP_TAPCELL_ROW_4_115
*2327 TAP_TAPCELL_ROW_4_116
*2328 TAP_TAPCELL_ROW_5_117
*2329 TAP_TAPCELL_ROW_5_118
*2330 TAP_TAPCELL_ROW_5_119
*2331 TAP_TAPCELL_ROW_5_120
*2332 TAP_TAPCELL_ROW_5_121
*2333 TAP_TAPCELL_ROW_5_122
*2334 TAP_TAPCELL_ROW_6_123
*2335 TAP_TAPCELL_ROW_6_124
*2336 TAP_TAPCELL_ROW_6_125
*2337 TAP_TAPCELL_ROW_6_126
*2338 TAP_TAPCELL_ROW_6_127
*2339 TAP_TAPCELL_ROW_6_128
*2340 TAP_TAPCELL_ROW_6_129
*2341 TAP_TAPCELL_ROW_7_130
*2342 TAP_TAPCELL_ROW_7_131
*2343 TAP_TAPCELL_ROW_7_132
*2344 TAP_TAPCELL_ROW_7_133
*2345 TAP_TAPCELL_ROW_7_134
*2346 TAP_TAPCELL_ROW_7_135
*2347 TAP_TAPCELL_ROW_8_136
*2348 TAP_TAPCELL_ROW_8_137
*2349 TAP_TAPCELL_ROW_8_138
*2350 TAP_TAPCELL_ROW_8_139
*2351 TAP_TAPCELL_ROW_8_140
*2352 TAP_TAPCELL_ROW_8_141
*2353 TAP_TAPCELL_ROW_8_142
*2354 TAP_TAPCELL_ROW_9_143
*2355 TAP_TAPCELL_ROW_9_144
*2356 TAP_TAPCELL_ROW_9_145
*2357 TAP_TAPCELL_ROW_9_146
*2358 TAP_TAPCELL_ROW_9_147
*2359 TAP_TAPCELL_ROW_9_148
*2360 _0_
*2361 _1_
*2362 ctrl_diode_I\[0\]\.cell0_I
*2363 ctrl_diode_I\[1\]\.cell0_I
*2364 ctrl_diode_I\[2\]\.cell0_I
*2365 ctrl_ibuf_I\[0\]\.genblk1\.cell0_I
*2366 ctrl_ibuf_I\[1\]\.genblk1\.cell0_I
*2367 ctrl_ibuf_I\[2\]\.genblk1\.cell0_I
*2368 genblk1\[0\]\.tbuf_pol_spine_ow_I\.cell0_I
*2369 genblk1\[0\]\.tbuf_spine_ow_I\[0\]\.genblk1\.cell0_I
*2370 genblk1\[0\]\.tbuf_spine_ow_I\[10\]\.genblk1\.cell0_I
*2371 genblk1\[0\]\.tbuf_spine_ow_I\[11\]\.genblk1\.cell0_I
*2372 genblk1\[0\]\.tbuf_spine_ow_I\[12\]\.genblk1\.cell0_I
*2373 genblk1\[0\]\.tbuf_spine_ow_I\[13\]\.genblk1\.cell0_I
*2374 genblk1\[0\]\.tbuf_spine_ow_I\[14\]\.genblk1\.cell0_I
*2375 genblk1\[0\]\.tbuf_spine_ow_I\[15\]\.genblk1\.cell0_I
*2376 genblk1\[0\]\.tbuf_spine_ow_I\[16\]\.genblk1\.cell0_I
*2377 genblk1\[0\]\.tbuf_spine_ow_I\[17\]\.genblk1\.cell0_I
*2378 genblk1\[0\]\.tbuf_spine_ow_I\[18\]\.genblk1\.cell0_I
*2379 genblk1\[0\]\.tbuf_spine_ow_I\[19\]\.genblk1\.cell0_I
*2380 genblk1\[0\]\.tbuf_spine_ow_I\[1\]\.genblk1\.cell0_I
*2381 genblk1\[0\]\.tbuf_spine_ow_I\[20\]\.genblk1\.cell0_I
*2382 genblk1\[0\]\.tbuf_spine_ow_I\[21\]\.genblk1\.cell0_I
*2383 genblk1\[0\]\.tbuf_spine_ow_I\[22\]\.genblk1\.cell0_I
*2384 genblk1\[0\]\.tbuf_spine_ow_I\[23\]\.genblk1\.cell0_I
*2385 genblk1\[0\]\.tbuf_spine_ow_I\[2\]\.genblk1\.cell0_I
*2386 genblk1\[0\]\.tbuf_spine_ow_I\[3\]\.genblk1\.cell0_I
*2387 genblk1\[0\]\.tbuf_spine_ow_I\[4\]\.genblk1\.cell0_I
*2388 genblk1\[0\]\.tbuf_spine_ow_I\[5\]\.genblk1\.cell0_I
*2389 genblk1\[0\]\.tbuf_spine_ow_I\[6\]\.genblk1\.cell0_I
*2390 genblk1\[0\]\.tbuf_spine_ow_I\[7\]\.genblk1\.cell0_I
*2391 genblk1\[0\]\.tbuf_spine_ow_I\[8\]\.genblk1\.cell0_I
*2392 genblk1\[0\]\.tbuf_spine_ow_I\[9\]\.genblk1\.cell0_I
*2393 genblk1\[0\]\.tie_I\.cell_I
*2394 genblk1\[1\]\.tbuf_pol_spine_ow_I\.cell0_I
*2395 genblk1\[1\]\.tbuf_spine_ow_I\[0\]\.genblk1\.cell0_I
*2396 genblk1\[1\]\.tbuf_spine_ow_I\[10\]\.genblk1\.cell0_I
*2397 genblk1\[1\]\.tbuf_spine_ow_I\[11\]\.genblk1\.cell0_I
*2398 genblk1\[1\]\.tbuf_spine_ow_I\[12\]\.genblk1\.cell0_I
*2399 genblk1\[1\]\.tbuf_spine_ow_I\[13\]\.genblk1\.cell0_I
*2400 genblk1\[1\]\.tbuf_spine_ow_I\[14\]\.genblk1\.cell0_I
*2401 genblk1\[1\]\.tbuf_spine_ow_I\[15\]\.genblk1\.cell0_I
*2402 genblk1\[1\]\.tbuf_spine_ow_I\[16\]\.genblk1\.cell0_I
*2403 genblk1\[1\]\.tbuf_spine_ow_I\[17\]\.genblk1\.cell0_I
*2404 genblk1\[1\]\.tbuf_spine_ow_I\[18\]\.genblk1\.cell0_I
*2405 genblk1\[1\]\.tbuf_spine_ow_I\[19\]\.genblk1\.cell0_I
*2406 genblk1\[1\]\.tbuf_spine_ow_I\[1\]\.genblk1\.cell0_I
*2407 genblk1\[1\]\.tbuf_spine_ow_I\[20\]\.genblk1\.cell0_I
*2408 genblk1\[1\]\.tbuf_spine_ow_I\[21\]\.genblk1\.cell0_I
*2409 genblk1\[1\]\.tbuf_spine_ow_I\[22\]\.genblk1\.cell0_I
*2410 genblk1\[1\]\.tbuf_spine_ow_I\[23\]\.genblk1\.cell0_I
*2411 genblk1\[1\]\.tbuf_spine_ow_I\[2\]\.genblk1\.cell0_I
*2412 genblk1\[1\]\.tbuf_spine_ow_I\[3\]\.genblk1\.cell0_I
*2413 genblk1\[1\]\.tbuf_spine_ow_I\[4\]\.genblk1\.cell0_I
*2414 genblk1\[1\]\.tbuf_spine_ow_I\[5\]\.genblk1\.cell0_I
*2415 genblk1\[1\]\.tbuf_spine_ow_I\[6\]\.genblk1\.cell0_I
*2416 genblk1\[1\]\.tbuf_spine_ow_I\[7\]\.genblk1\.cell0_I
*2417 genblk1\[1\]\.tbuf_spine_ow_I\[8\]\.genblk1\.cell0_I
*2418 genblk1\[1\]\.tbuf_spine_ow_I\[9\]\.genblk1\.cell0_I
*2419 genblk1\[1\]\.tie_I\.cell_I
*2420 genblk2\[0\]\.ctrl_ena_buf_I\.genblk1\.cell0_I
*2421 genblk2\[0\]\.pad_ui_in_buf_I\[0\]\.genblk1\.cell0_I
*2422 genblk2\[0\]\.pad_ui_in_buf_I\[0\]\.genblk1\.cell1_I
*2423 genblk2\[0\]\.pad_ui_in_buf_I\[1\]\.genblk1\.cell0_I
*2424 genblk2\[0\]\.pad_ui_in_buf_I\[1\]\.genblk1\.cell1_I
*2425 genblk2\[0\]\.pad_ui_in_buf_I\[2\]\.genblk1\.cell0_I
*2426 genblk2\[0\]\.pad_ui_in_buf_I\[2\]\.genblk1\.cell1_I
*2427 genblk2\[0\]\.pad_ui_in_buf_I\[3\]\.genblk1\.cell0_I
*2428 genblk2\[0\]\.pad_ui_in_buf_I\[3\]\.genblk1\.cell1_I
*2429 genblk2\[0\]\.pad_ui_in_buf_I\[4\]\.genblk1\.cell0_I
*2430 genblk2\[0\]\.pad_ui_in_buf_I\[4\]\.genblk1\.cell1_I
*2431 genblk2\[0\]\.pad_ui_in_buf_I\[5\]\.genblk1\.cell0_I
*2432 genblk2\[0\]\.pad_ui_in_buf_I\[5\]\.genblk1\.cell1_I
*2433 genblk2\[0\]\.pad_ui_in_buf_I\[6\]\.genblk1\.cell0_I
*2434 genblk2\[0\]\.pad_ui_in_buf_I\[6\]\.genblk1\.cell1_I
*2435 genblk2\[0\]\.pad_ui_in_buf_I\[7\]\.genblk1\.cell0_I
*2436 genblk2\[0\]\.pad_ui_in_buf_I\[7\]\.genblk1\.cell1_I
*2437 genblk2\[0\]\.pad_ui_in_buf_I\[8\]\.genblk1\.cell0_I
*2438 genblk2\[0\]\.pad_ui_in_buf_I\[8\]\.genblk1\.cell1_I
*2439 genblk2\[0\]\.pad_ui_in_buf_I\[9\]\.genblk1\.cell0_I
*2440 genblk2\[0\]\.pad_ui_in_buf_I\[9\]\.genblk1\.cell1_I
*2441 genblk2\[0\]\.pad_uio_in_buf_I\[0\]\.genblk1\.cell0_I
*2442 genblk2\[0\]\.pad_uio_in_buf_I\[0\]\.genblk1\.cell1_I
*2443 genblk2\[0\]\.pad_uio_in_buf_I\[1\]\.genblk1\.cell0_I
*2444 genblk2\[0\]\.pad_uio_in_buf_I\[1\]\.genblk1\.cell1_I
*2445 genblk2\[0\]\.pad_uio_in_buf_I\[2\]\.genblk1\.cell0_I
*2446 genblk2\[0\]\.pad_uio_in_buf_I\[2\]\.genblk1\.cell1_I
*2447 genblk2\[0\]\.pad_uio_in_buf_I\[3\]\.genblk1\.cell0_I
*2448 genblk2\[0\]\.pad_uio_in_buf_I\[3\]\.genblk1\.cell1_I
*2449 genblk2\[0\]\.pad_uio_in_buf_I\[4\]\.genblk1\.cell0_I
*2450 genblk2\[0\]\.pad_uio_in_buf_I\[4\]\.genblk1\.cell1_I
*2451 genblk2\[0\]\.pad_uio_in_buf_I\[5\]\.genblk1\.cell0_I
*2452 genblk2\[0\]\.pad_uio_in_buf_I\[5\]\.genblk1\.cell1_I
*2453 genblk2\[0\]\.pad_uio_in_buf_I\[6\]\.genblk1\.cell0_I
*2454 genblk2\[0\]\.pad_uio_in_buf_I\[6\]\.genblk1\.cell1_I
*2455 genblk2\[0\]\.pad_uio_in_buf_I\[7\]\.genblk1\.cell0_I
*2456 genblk2\[0\]\.pad_uio_in_buf_I\[7\]\.genblk1\.cell1_I
*2457 genblk2\[0\]\.sel_cnt_buf_I\[0\]\.genblk1\.cell0_I
*2458 genblk2\[0\]\.sel_cnt_buf_I\[1\]\.genblk1\.cell0_I
*2459 genblk2\[0\]\.sel_cnt_buf_I\[2\]\.genblk1\.cell0_I
*2460 genblk2\[0\]\.sel_cnt_buf_I\[3\]\.genblk1\.cell0_I
*2461 genblk2\[0\]\.sel_cnt_buf_I\[4\]\.genblk1\.cell0_I
*2462 genblk2\[0\]\.sel_cnt_buf_I\[5\]\.genblk1\.cell0_I
*2463 genblk2\[0\]\.sel_cnt_buf_I\[6\]\.genblk1\.cell0_I
*2464 genblk2\[0\]\.sel_cnt_buf_I\[7\]\.genblk1\.cell0_I
*2465 genblk2\[0\]\.sel_cnt_buf_I\[8\]\.genblk1\.cell0_I
*2466 genblk2\[0\]\.tie_guard_I\[0\]\.cell_I
*2467 genblk2\[0\]\.tie_guard_I\[1\]\.cell_I
*2468 genblk2\[1\]\.ctrl_ena_buf_I\.genblk1\.cell0_I
*2469 genblk2\[1\]\.pad_ui_in_buf_I\[0\]\.genblk1\.cell0_I
*2470 genblk2\[1\]\.pad_ui_in_buf_I\[0\]\.genblk1\.cell1_I
*2471 genblk2\[1\]\.pad_ui_in_buf_I\[1\]\.genblk1\.cell0_I
*2472 genblk2\[1\]\.pad_ui_in_buf_I\[1\]\.genblk1\.cell1_I
*2473 genblk2\[1\]\.pad_ui_in_buf_I\[2\]\.genblk1\.cell0_I
*2474 genblk2\[1\]\.pad_ui_in_buf_I\[2\]\.genblk1\.cell1_I
*2475 genblk2\[1\]\.pad_ui_in_buf_I\[3\]\.genblk1\.cell0_I
*2476 genblk2\[1\]\.pad_ui_in_buf_I\[3\]\.genblk1\.cell1_I
*2477 genblk2\[1\]\.pad_ui_in_buf_I\[4\]\.genblk1\.cell0_I
*2478 genblk2\[1\]\.pad_ui_in_buf_I\[4\]\.genblk1\.cell1_I
*2479 genblk2\[1\]\.pad_ui_in_buf_I\[5\]\.genblk1\.cell0_I
*2480 genblk2\[1\]\.pad_ui_in_buf_I\[5\]\.genblk1\.cell1_I
*2481 genblk2\[1\]\.pad_ui_in_buf_I\[6\]\.genblk1\.cell0_I
*2482 genblk2\[1\]\.pad_ui_in_buf_I\[6\]\.genblk1\.cell1_I
*2483 genblk2\[1\]\.pad_ui_in_buf_I\[7\]\.genblk1\.cell0_I
*2484 genblk2\[1\]\.pad_ui_in_buf_I\[7\]\.genblk1\.cell1_I
*2485 genblk2\[1\]\.pad_ui_in_buf_I\[8\]\.genblk1\.cell0_I
*2486 genblk2\[1\]\.pad_ui_in_buf_I\[8\]\.genblk1\.cell1_I
*2487 genblk2\[1\]\.pad_ui_in_buf_I\[9\]\.genblk1\.cell0_I
*2488 genblk2\[1\]\.pad_ui_in_buf_I\[9\]\.genblk1\.cell1_I
*2489 genblk2\[1\]\.pad_uio_in_buf_I\[0\]\.genblk1\.cell0_I
*2490 genblk2\[1\]\.pad_uio_in_buf_I\[0\]\.genblk1\.cell1_I
*2491 genblk2\[1\]\.pad_uio_in_buf_I\[1\]\.genblk1\.cell0_I
*2492 genblk2\[1\]\.pad_uio_in_buf_I\[1\]\.genblk1\.cell1_I
*2493 genblk2\[1\]\.pad_uio_in_buf_I\[2\]\.genblk1\.cell0_I
*2494 genblk2\[1\]\.pad_uio_in_buf_I\[2\]\.genblk1\.cell1_I
*2495 genblk2\[1\]\.pad_uio_in_buf_I\[3\]\.genblk1\.cell0_I
*2496 genblk2\[1\]\.pad_uio_in_buf_I\[3\]\.genblk1\.cell1_I
*2497 genblk2\[1\]\.pad_uio_in_buf_I\[4\]\.genblk1\.cell0_I
*2498 genblk2\[1\]\.pad_uio_in_buf_I\[4\]\.genblk1\.cell1_I
*2499 genblk2\[1\]\.pad_uio_in_buf_I\[5\]\.genblk1\.cell0_I
*2500 genblk2\[1\]\.pad_uio_in_buf_I\[5\]\.genblk1\.cell1_I
*2501 genblk2\[1\]\.pad_uio_in_buf_I\[6\]\.genblk1\.cell0_I
*2502 genblk2\[1\]\.pad_uio_in_buf_I\[6\]\.genblk1\.cell1_I
*2503 genblk2\[1\]\.pad_uio_in_buf_I\[7\]\.genblk1\.cell0_I
*2504 genblk2\[1\]\.pad_uio_in_buf_I\[7\]\.genblk1\.cell1_I
*2505 genblk2\[1\]\.sel_cnt_buf_I\[0\]\.genblk1\.cell0_I
*2506 genblk2\[1\]\.sel_cnt_buf_I\[1\]\.genblk1\.cell0_I
*2507 genblk2\[1\]\.sel_cnt_buf_I\[2\]\.genblk1\.cell0_I
*2508 genblk2\[1\]\.sel_cnt_buf_I\[3\]\.genblk1\.cell0_I
*2509 genblk2\[1\]\.sel_cnt_buf_I\[4\]\.genblk1\.cell0_I
*2510 genblk2\[1\]\.sel_cnt_buf_I\[5\]\.genblk1\.cell0_I
*2511 genblk2\[1\]\.sel_cnt_buf_I\[6\]\.genblk1\.cell0_I
*2512 genblk2\[1\]\.sel_cnt_buf_I\[7\]\.genblk1\.cell0_I
*2513 genblk2\[1\]\.sel_cnt_buf_I\[8\]\.genblk1\.cell0_I
*2514 genblk2\[1\]\.tie_guard_I\[0\]\.cell_I
*2515 genblk2\[1\]\.tie_guard_I\[1\]\.cell_I
*2516 pad_ui_in_diode_I\[0\]\.cell0_I
*2517 pad_ui_in_diode_I\[1\]\.cell0_I
*2518 pad_ui_in_diode_I\[2\]\.cell0_I
*2519 pad_ui_in_diode_I\[3\]\.cell0_I
*2520 pad_ui_in_diode_I\[4\]\.cell0_I
*2521 pad_ui_in_diode_I\[5\]\.cell0_I
*2522 pad_ui_in_diode_I\[6\]\.cell0_I
*2523 pad_ui_in_diode_I\[7\]\.cell0_I
*2524 pad_ui_in_diode_I\[8\]\.cell0_I
*2525 pad_ui_in_diode_I\[9\]\.cell0_I
*2526 pad_uio_in_diode_I\[0\]\.cell0_I
*2527 pad_uio_in_diode_I\[1\]\.cell0_I
*2528 pad_uio_in_diode_I\[2\]\.cell0_I
*2529 pad_uio_in_diode_I\[3\]\.cell0_I
*2530 pad_uio_in_diode_I\[4\]\.cell0_I
*2531 pad_uio_in_diode_I\[5\]\.cell0_I
*2532 pad_uio_in_diode_I\[6\]\.cell0_I
*2533 pad_uio_in_diode_I\[7\]\.cell0_I
*2534 sel_cnt_gen\[0\]\.cnt_bit_I\.cell0_I
*2535 sel_cnt_gen\[1\]\.cnt_bit_I\.cell0_I
*2536 sel_cnt_gen\[2\]\.cnt_bit_I\.cell0_I
*2537 sel_cnt_gen\[3\]\.cnt_bit_I\.cell0_I
*2538 sel_cnt_gen\[4\]\.cnt_bit_I\.cell0_I
*2539 sel_cnt_gen\[5\]\.cnt_bit_I\.cell0_I
*2540 sel_cnt_gen\[6\]\.cnt_bit_I\.cell0_I
*2541 sel_cnt_gen\[7\]\.cnt_bit_I\.cell0_I
*2542 sel_cnt_gen\[8\]\.cnt_bit_I\.cell0_I
*2543 sel_cnt_gen\[9\]\.cnt_bit_I\.cell0_I
*2544 side_ena0_buf_I\.genblk1\.cell0_I
*2545 side_ena0_buf_I\.genblk1\.cell1_I
*2546 side_ena0_gen_I\.genblk1\.cell0_I
*2547 side_ena1_buf_I\.genblk1\.cell0_I
*2548 side_ena1_buf_I\.genblk1\.cell1_I
*2549 side_sel_buf_I\.genblk1\.cell0_I
*2550 spine_diode_I\[0\]\.cell0_I
*2551 spine_diode_I\[10\]\.cell0_I
*2552 spine_diode_I\[11\]\.cell0_I
*2553 spine_diode_I\[12\]\.cell0_I
*2554 spine_diode_I\[13\]\.cell0_I
*2555 spine_diode_I\[14\]\.cell0_I
*2556 spine_diode_I\[15\]\.cell0_I
*2557 spine_diode_I\[16\]\.cell0_I
*2558 spine_diode_I\[17\]\.cell0_I
*2559 spine_diode_I\[18\]\.cell0_I
*2560 spine_diode_I\[19\]\.cell0_I
*2561 spine_diode_I\[1\]\.cell0_I
*2562 spine_diode_I\[20\]\.cell0_I
*2563 spine_diode_I\[21\]\.cell0_I
*2564 spine_diode_I\[22\]\.cell0_I
*2565 spine_diode_I\[23\]\.cell0_I
*2566 spine_diode_I\[24\]\.cell0_I
*2567 spine_diode_I\[25\]\.cell0_I
*2568 spine_diode_I\[26\]\.cell0_I
*2569 spine_diode_I\[27\]\.cell0_I
*2570 spine_diode_I\[28\]\.cell0_I
*2571 spine_diode_I\[29\]\.cell0_I
*2572 spine_diode_I\[2\]\.cell0_I
*2573 spine_diode_I\[30\]\.cell0_I
*2574 spine_diode_I\[31\]\.cell0_I
*2575 spine_diode_I\[32\]\.cell0_I
*2576 spine_diode_I\[33\]\.cell0_I
*2577 spine_diode_I\[34\]\.cell0_I
*2578 spine_diode_I\[35\]\.cell0_I
*2579 spine_diode_I\[36\]\.cell0_I
*2580 spine_diode_I\[37\]\.cell0_I
*2581 spine_diode_I\[38\]\.cell0_I
*2582 spine_diode_I\[39\]\.cell0_I
*2583 spine_diode_I\[3\]\.cell0_I
*2584 spine_diode_I\[40\]\.cell0_I
*2585 spine_diode_I\[41\]\.cell0_I
*2586 spine_diode_I\[42\]\.cell0_I
*2587 spine_diode_I\[43\]\.cell0_I
*2588 spine_diode_I\[44\]\.cell0_I
*2589 spine_diode_I\[45\]\.cell0_I
*2590 spine_diode_I\[46\]\.cell0_I
*2591 spine_diode_I\[47\]\.cell0_I
*2592 spine_diode_I\[48\]\.cell0_I
*2593 spine_diode_I\[49\]\.cell0_I
*2594 spine_diode_I\[4\]\.cell0_I
*2595 spine_diode_I\[50\]\.cell0_I
*2596 spine_diode_I\[51\]\.cell0_I
*2597 spine_diode_I\[5\]\.cell0_I
*2598 spine_diode_I\[6\]\.cell0_I
*2599 spine_diode_I\[7\]\.cell0_I
*2600 spine_diode_I\[8\]\.cell0_I
*2601 spine_diode_I\[9\]\.cell0_I
*2602 tie_I\.cell_I
*2603 uio_oe_ibuf_I\[0\]\.genblk1\.cell0_I
*2604 uio_oe_ibuf_I\[10\]\.genblk1\.cell0_I
*2605 uio_oe_ibuf_I\[11\]\.genblk1\.cell0_I
*2606 uio_oe_ibuf_I\[12\]\.genblk1\.cell0_I
*2607 uio_oe_ibuf_I\[13\]\.genblk1\.cell0_I
*2608 uio_oe_ibuf_I\[14\]\.genblk1\.cell0_I
*2609 uio_oe_ibuf_I\[15\]\.genblk1\.cell0_I
*2610 uio_oe_ibuf_I\[1\]\.genblk1\.cell0_I
*2611 uio_oe_ibuf_I\[2\]\.genblk1\.cell0_I
*2612 uio_oe_ibuf_I\[3\]\.genblk1\.cell0_I
*2613 uio_oe_ibuf_I\[4\]\.genblk1\.cell0_I
*2614 uio_oe_ibuf_I\[5\]\.genblk1\.cell0_I
*2615 uio_oe_ibuf_I\[6\]\.genblk1\.cell0_I
*2616 uio_oe_ibuf_I\[7\]\.genblk1\.cell0_I
*2617 uio_oe_ibuf_I\[8\]\.genblk1\.cell0_I
*2618 uio_oe_ibuf_I\[9\]\.genblk1\.cell0_I
*2619 uio_oe_mux_I\[0\]\.cell0_I
*2620 uio_oe_mux_I\[1\]\.cell0_I
*2621 uio_oe_mux_I\[2\]\.cell0_I
*2622 uio_oe_mux_I\[3\]\.cell0_I
*2623 uio_oe_mux_I\[4\]\.cell0_I
*2624 uio_oe_mux_I\[5\]\.cell0_I
*2625 uio_oe_mux_I\[6\]\.cell0_I
*2626 uio_oe_mux_I\[7\]\.cell0_I
*2627 uio_oe_obuf_I\[0\]\.genblk1\.cell0_I
*2628 uio_oe_obuf_I\[1\]\.genblk1\.cell0_I
*2629 uio_oe_obuf_I\[2\]\.genblk1\.cell0_I
*2630 uio_oe_obuf_I\[3\]\.genblk1\.cell0_I
*2631 uio_oe_obuf_I\[4\]\.genblk1\.cell0_I
*2632 uio_oe_obuf_I\[5\]\.genblk1\.cell0_I
*2633 uio_oe_obuf_I\[6\]\.genblk1\.cell0_I
*2634 uio_oe_obuf_I\[7\]\.genblk1\.cell0_I
*2635 uio_out_ibuf_I\[0\]\.genblk1\.cell0_I
*2636 uio_out_ibuf_I\[10\]\.genblk1\.cell0_I
*2637 uio_out_ibuf_I\[11\]\.genblk1\.cell0_I
*2638 uio_out_ibuf_I\[12\]\.genblk1\.cell0_I
*2639 uio_out_ibuf_I\[13\]\.genblk1\.cell0_I
*2640 uio_out_ibuf_I\[14\]\.genblk1\.cell0_I
*2641 uio_out_ibuf_I\[15\]\.genblk1\.cell0_I
*2642 uio_out_ibuf_I\[1\]\.genblk1\.cell0_I
*2643 uio_out_ibuf_I\[2\]\.genblk1\.cell0_I
*2644 uio_out_ibuf_I\[3\]\.genblk1\.cell0_I
*2645 uio_out_ibuf_I\[4\]\.genblk1\.cell0_I
*2646 uio_out_ibuf_I\[5\]\.genblk1\.cell0_I
*2647 uio_out_ibuf_I\[6\]\.genblk1\.cell0_I
*2648 uio_out_ibuf_I\[7\]\.genblk1\.cell0_I
*2649 uio_out_ibuf_I\[8\]\.genblk1\.cell0_I
*2650 uio_out_ibuf_I\[9\]\.genblk1\.cell0_I
*2651 uio_out_mux_I\[0\]\.cell0_I
*2652 uio_out_mux_I\[1\]\.cell0_I
*2653 uio_out_mux_I\[2\]\.cell0_I
*2654 uio_out_mux_I\[3\]\.cell0_I
*2655 uio_out_mux_I\[4\]\.cell0_I
*2656 uio_out_mux_I\[5\]\.cell0_I
*2657 uio_out_mux_I\[6\]\.cell0_I
*2658 uio_out_mux_I\[7\]\.cell0_I
*2659 uio_out_obuf_I\[0\]\.genblk1\.cell0_I
*2660 uio_out_obuf_I\[1\]\.genblk1\.cell0_I
*2661 uio_out_obuf_I\[2\]\.genblk1\.cell0_I
*2662 uio_out_obuf_I\[3\]\.genblk1\.cell0_I
*2663 uio_out_obuf_I\[4\]\.genblk1\.cell0_I
*2664 uio_out_obuf_I\[5\]\.genblk1\.cell0_I
*2665 uio_out_obuf_I\[6\]\.genblk1\.cell0_I
*2666 uio_out_obuf_I\[7\]\.genblk1\.cell0_I
*2667 uo_out_ibuf_I\[0\]\.genblk1\.cell0_I
*2668 uo_out_ibuf_I\[10\]\.genblk1\.cell0_I
*2669 uo_out_ibuf_I\[11\]\.genblk1\.cell0_I
*2670 uo_out_ibuf_I\[12\]\.genblk1\.cell0_I
*2671 uo_out_ibuf_I\[13\]\.genblk1\.cell0_I
*2672 uo_out_ibuf_I\[14\]\.genblk1\.cell0_I
*2673 uo_out_ibuf_I\[15\]\.genblk1\.cell0_I
*2674 uo_out_ibuf_I\[1\]\.genblk1\.cell0_I
*2675 uo_out_ibuf_I\[2\]\.genblk1\.cell0_I
*2676 uo_out_ibuf_I\[3\]\.genblk1\.cell0_I
*2677 uo_out_ibuf_I\[4\]\.genblk1\.cell0_I
*2678 uo_out_ibuf_I\[5\]\.genblk1\.cell0_I
*2679 uo_out_ibuf_I\[6\]\.genblk1\.cell0_I
*2680 uo_out_ibuf_I\[7\]\.genblk1\.cell0_I
*2681 uo_out_ibuf_I\[8\]\.genblk1\.cell0_I
*2682 uo_out_ibuf_I\[9\]\.genblk1\.cell0_I
*2683 uo_out_mux_I\[0\]\.cell0_I
*2684 uo_out_mux_I\[1\]\.cell0_I
*2685 uo_out_mux_I\[2\]\.cell0_I
*2686 uo_out_mux_I\[3\]\.cell0_I
*2687 uo_out_mux_I\[4\]\.cell0_I
*2688 uo_out_mux_I\[5\]\.cell0_I
*2689 uo_out_mux_I\[6\]\.cell0_I
*2690 uo_out_mux_I\[7\]\.cell0_I
*2691 uo_out_obuf_I\[0\]\.genblk1\.cell0_I
*2692 uo_out_obuf_I\[1\]\.genblk1\.cell0_I
*2693 uo_out_obuf_I\[2\]\.genblk1\.cell0_I
*2694 uo_out_obuf_I\[3\]\.genblk1\.cell0_I
*2695 uo_out_obuf_I\[4\]\.genblk1\.cell0_I
*2696 uo_out_obuf_I\[5\]\.genblk1\.cell0_I
*2697 uo_out_obuf_I\[6\]\.genblk1\.cell0_I
*2698 uo_out_obuf_I\[7\]\.genblk1\.cell0_I

*PORTS
ctrl_ena I
ctrl_sel_inc I
ctrl_sel_rst_n I
k_one O
k_zero O
pad_ui_in[0] I
pad_ui_in[1] I
pad_ui_in[2] I
pad_ui_in[3] I
pad_ui_in[4] I
pad_ui_in[5] I
pad_ui_in[6] I
pad_ui_in[7] I
pad_ui_in[8] I
pad_ui_in[9] I
pad_uio_in[0] I
pad_uio_in[1] I
pad_uio_in[2] I
pad_uio_in[3] I
pad_uio_in[4] I
pad_uio_in[5] I
pad_uio_in[6] I
pad_uio_in[7] I
pad_uio_oe_n[0] O
pad_uio_oe_n[1] O
pad_uio_oe_n[2] O
pad_uio_oe_n[3] O
pad_uio_oe_n[4] O
pad_uio_oe_n[5] O
pad_uio_oe_n[6] O
pad_uio_oe_n[7] O
pad_uio_out[0] O
pad_uio_out[1] O
pad_uio_out[2] O
pad_uio_out[3] O
pad_uio_out[4] O
pad_uio_out[5] O
pad_uio_out[6] O
pad_uio_out[7] O
pad_uo_out[0] O
pad_uo_out[1] O
pad_uo_out[2] O
pad_uo_out[3] O
pad_uo_out[4] O
pad_uo_out[5] O
pad_uo_out[6] O
pad_uo_out[7] O
spine_bot_iw[0] O
spine_bot_iw[10] O
spine_bot_iw[11] O
spine_bot_iw[12] O
spine_bot_iw[13] O
spine_bot_iw[14] O
spine_bot_iw[15] O
spine_bot_iw[16] O
spine_bot_iw[17] O
spine_bot_iw[18] O
spine_bot_iw[19] O
spine_bot_iw[1] O
spine_bot_iw[20] O
spine_bot_iw[21] O
spine_bot_iw[22] O
spine_bot_iw[23] O
spine_bot_iw[24] O
spine_bot_iw[25] O
spine_bot_iw[26] O
spine_bot_iw[27] O
spine_bot_iw[28] O
spine_bot_iw[29] O
spine_bot_iw[2] O
spine_bot_iw[3] O
spine_bot_iw[4] O
spine_bot_iw[5] O
spine_bot_iw[6] O
spine_bot_iw[7] O
spine_bot_iw[8] O
spine_bot_iw[9] O
spine_bot_ow[0] I
spine_bot_ow[10] I
spine_bot_ow[11] I
spine_bot_ow[12] I
spine_bot_ow[13] I
spine_bot_ow[14] I
spine_bot_ow[15] I
spine_bot_ow[16] I
spine_bot_ow[17] I
spine_bot_ow[18] I
spine_bot_ow[19] I
spine_bot_ow[1] I
spine_bot_ow[20] I
spine_bot_ow[21] I
spine_bot_ow[22] I
spine_bot_ow[23] I
spine_bot_ow[24] I
spine_bot_ow[25] I
spine_bot_ow[2] I
spine_bot_ow[3] I
spine_bot_ow[4] I
spine_bot_ow[5] I
spine_bot_ow[6] I
spine_bot_ow[7] I
spine_bot_ow[8] I
spine_bot_ow[9] I
spine_top_iw[0] O
spine_top_iw[10] O
spine_top_iw[11] O
spine_top_iw[12] O
spine_top_iw[13] O
spine_top_iw[14] O
spine_top_iw[15] O
spine_top_iw[16] O
spine_top_iw[17] O
spine_top_iw[18] O
spine_top_iw[19] O
spine_top_iw[1] O
spine_top_iw[20] O
spine_top_iw[21] O
spine_top_iw[22] O
spine_top_iw[23] O
spine_top_iw[24] O
spine_top_iw[25] O
spine_top_iw[26] O
spine_top_iw[27] O
spine_top_iw[28] O
spine_top_iw[29] O
spine_top_iw[2] O
spine_top_iw[3] O
spine_top_iw[4] O
spine_top_iw[5] O
spine_top_iw[6] O
spine_top_iw[7] O
spine_top_iw[8] O
spine_top_iw[9] O
spine_top_ow[0] I
spine_top_ow[10] I
spine_top_ow[11] I
spine_top_ow[12] I
spine_top_ow[13] I
spine_top_ow[14] I
spine_top_ow[15] I
spine_top_ow[16] I
spine_top_ow[17] I
spine_top_ow[18] I
spine_top_ow[19] I
spine_top_ow[1] I
spine_top_ow[20] I
spine_top_ow[21] I
spine_top_ow[22] I
spine_top_ow[23] I
spine_top_ow[24] I
spine_top_ow[25] I
spine_top_ow[2] I
spine_top_ow[3] I
spine_top_ow[4] I
spine_top_ow[5] I
spine_top_ow[6] I
spine_top_ow[7] I
spine_top_ow[8] I
spine_top_ow[9] I

*D_NET *3 0.00928156
*CONN
*P ctrl_ena I
*I *2365:A I *D sky130_fd_sc_hd__buf_2
*I *2362:DIODE I *D sky130_fd_sc_hd__diode_2
*CAP
1 ctrl_ena 0.000664724
2 *2365:A 0
3 *2362:DIODE 0
4 *3:26 0.00332352
5 *3:24 0.00375898
6 *3:13 0.00110019
7 *3:13 k_one 9.15186e-06
8 *3:13 pad_uo_out[7] 0.000312753
9 *3:13 *2364:DIODE 8.31032e-05
10 *3:13 *4:13 2.91419e-05
11 *3:13 *5:33 0
12 *3:24 *5:33 0
13 *3:24 *25:13 0
*RES
1 ctrl_ena *3:13 13.1077 
2 *3:13 *2362:DIODE 13.8 
3 *3:13 *3:24 12.5179 
4 *3:24 *3:26 51.875 
5 *3:26 *2365:A 9.3 
*END

*D_NET *4 0.00993548
*CONN
*P ctrl_sel_inc I
*I *2366:A I *D sky130_fd_sc_hd__buf_2
*I *2363:DIODE I *D sky130_fd_sc_hd__diode_2
*CAP
1 ctrl_sel_inc 0.00407
2 *2366:A 0.000444564
3 *2363:DIODE 0
4 *4:13 0.00451457
5 *2366:A *2456:A 0
6 *2366:A *5:35 0.000487603
7 *2366:A *98:24 0
8 *4:13 k_one 0
9 *4:13 k_zero 9.61175e-05
10 *4:13 spine_bot_ow[15] 0
11 *4:13 spine_bot_ow[16] 0
12 *4:13 spine_bot_ow[22] 0
13 *4:13 spine_bot_ow[23] 0
14 *4:13 spine_bot_ow[4] 0
15 *4:13 spine_bot_ow[6] 0
16 *4:13 spine_bot_ow[8] 0
17 *4:13 *2364:DIODE 6.22074e-05
18 *4:13 *2550:DIODE 0.000216504
19 *4:13 *2567:DIODE 1.47728e-05
20 *3:13 *4:13 2.91419e-05
*RES
1 ctrl_sel_inc *4:13 23.2861 
2 *4:13 *2363:DIODE 13.8 
3 *4:13 *2366:A 22.8179 
*END

*D_NET *5 0.0124787
*CONN
*P ctrl_sel_rst_n I
*I *2367:A I *D sky130_fd_sc_hd__buf_2
*I *2364:DIODE I *D sky130_fd_sc_hd__diode_2
*CAP
1 ctrl_sel_rst_n 0.000517387
2 *2367:A 2.23854e-05
3 *2364:DIODE 0.000780588
4 *5:35 0.00371854
5 *5:33 0.00395935
6 *2364:DIODE k_one 0.000174812
7 *2364:DIODE k_zero 5.06672e-05
8 *5:35 *2371:A 0.000577016
9 *5:35 *2384:A 5.71472e-05
10 *5:35 *163:10 0.000233337
11 *5:35 *166:75 1.98839e-05
12 *5:35 *166:83 4.59075e-05
13 *5:35 *166:204 1.21258e-05
14 *5:35 *167:152 2.89016e-05
15 *5:35 *167:154 0.000142053
16 *5:35 *167:163 0.000652864
17 *5:35 *167:191 0.0001399
18 *5:35 *167:193 0.000357952
19 *5:35 *167:195 0.000355009
20 *2366:A *5:35 0.000487603
21 *3:13 *2364:DIODE 8.31032e-05
22 *3:13 *5:33 0
23 *3:24 *5:33 0
24 *4:13 *2364:DIODE 6.22074e-05
*RES
1 ctrl_sel_rst_n *2364:DIODE 25.2986 
2 *2364:DIODE *5:33 22.9786 
3 *5:33 *5:35 63.7857 
4 *5:35 *2367:A 9.72857 
*END

*D_NET *6 0.00130045
*CONN
*P k_one O
*I *2602:HI O *D sky130_fd_sc_hd__conb_1
*CAP
1 k_one 0.000532011
2 *2602:HI 0.000532011
3 k_one k_zero 5.24635e-05
4 k_one pad_uo_out[7] 0
5 *2364:DIODE k_one 0.000174812
6 *3:13 k_one 9.15186e-06
7 *4:13 k_one 0
*RES
1 *2602:HI k_one 22.1157 
*END

*D_NET *7 0.00103843
*CONN
*P k_zero O
*I *2602:LO O *D sky130_fd_sc_hd__conb_1
*CAP
1 k_zero 0.000419592
2 *2602:LO 0.000419592
3 k_one k_zero 5.24635e-05
4 *2364:DIODE k_zero 5.06672e-05
5 *4:13 k_zero 9.61175e-05
*RES
1 *2602:LO k_zero 26.4598 
*END

*D_NET *8 0.0264717
*CONN
*P pad_ui_in[0] I
*I *2469:A I *D sky130_fd_sc_hd__and2_2
*I *2516:DIODE I *D sky130_fd_sc_hd__diode_2
*I *2421:A I *D sky130_fd_sc_hd__and2_2
*CAP
1 pad_ui_in[0] 0.000399874
2 *2469:A 0.00147955
3 *2516:DIODE 0
4 *2421:A 0
5 *8:21 0.00123182
6 *8:15 0.0041266
7 *8:13 0.00477421
8 *2469:A *2487:A 0.00011309
9 *2469:A *22:17 0.000439194
10 *2469:A *22:21 0.00117323
11 *2469:A *280:14 0.00118873
12 *8:13 *2487:A 6.92474e-05
13 *8:13 *9:11 0.000398603
14 *8:13 *17:9 0.000756991
15 *8:13 *17:42 1.94945e-05
16 *8:13 *18:11 1.06555e-05
17 *8:15 *2439:A 0.000309669
18 *8:15 *2489:A 0
19 *8:15 *9:13 0
20 *8:15 *9:23 0
21 *8:15 *9:43 0
22 *8:15 *17:42 0.00506729
23 *8:21 *13:19 0.00218443
24 *8:21 *14:23 0.000288442
25 *8:21 *15:17 0.00244057
*RES
1 pad_ui_in[0] *8:13 9.31832 
2 *8:13 *8:15 75.7143 
3 *8:15 *8:21 41.5536 
4 *8:21 *2421:A 9.3 
5 *8:15 *2516:DIODE 13.8 
6 *8:13 *2469:A 48.5679 
*END

*D_NET *9 0.0238904
*CONN
*P pad_ui_in[1] I
*I *2471:A I *D sky130_fd_sc_hd__and2_2
*I *2517:DIODE I *D sky130_fd_sc_hd__diode_2
*I *2423:A I *D sky130_fd_sc_hd__and2_2
*CAP
1 pad_ui_in[1] 0.000557185
2 *2471:A 0.000139072
3 *2517:DIODE 0
4 *2423:A 0
5 *9:43 0.00146921
6 *9:23 0.00199516
7 *9:13 0.0053791
8 *9:11 0.00527127
9 *2471:A spine_top_iw[10] 0
10 *2471:A spine_top_iw[9] 0
11 *9:11 *18:11 0.00086441
12 *9:11 *19:9 0
13 *9:13 *2441:A 0
14 *9:13 *18:13 0
15 *9:23 *2424:A 6.05161e-06
16 *9:23 *2441:A 0
17 *9:23 *19:44 0.000820194
18 *9:23 *22:40 0.0013255
19 *9:23 *173:118 0.000396886
20 *9:43 *2489:A 0
21 *9:43 *18:13 0
22 *9:43 *20:45 0.0028144
23 *9:43 *255:18 0.000120342
24 *9:43 *256:18 0.000122494
25 *9:43 *279:10 0.000415313
26 *9:43 *281:18 0.0016561
27 *9:43 *282:14 0.000139087
28 *8:13 *9:11 0.000398603
29 *8:15 *9:13 0
30 *8:15 *9:23 0
31 *8:15 *9:43 0
*RES
1 pad_ui_in[1] *9:11 9.7528 
2 *9:11 *9:13 62.5089 
3 *9:13 *9:23 48.2679 
4 *9:23 *2423:A 9.3 
5 *9:13 *2517:DIODE 13.8 
6 *9:11 *9:43 49.4196 
7 *9:43 *2471:A 15.7464 
*END

*D_NET *10 0.0175414
*CONN
*P pad_ui_in[2] I
*I *2473:A I *D sky130_fd_sc_hd__and2_2
*I *2518:DIODE I *D sky130_fd_sc_hd__diode_2
*I *2425:A I *D sky130_fd_sc_hd__and2_2
*CAP
1 pad_ui_in[2] 0.000448455
2 *2473:A 0.00177602
3 *2518:DIODE 0
4 *2425:A 0.00129145
5 *10:28 0.00451511
6 *10:26 0.00273909
7 *10:17 0.0017399
8 *2425:A *2420:A 0.000749913
9 *2425:A *2425:B 0.000447151
10 *2425:A *2426:A 5.57989e-05
11 *2473:A *2474:A 5.30637e-06
12 *2473:A *21:13 0.0004445
13 *10:17 *11:11 0.000141512
14 *10:28 *11:27 0
15 *10:28 *11:34 0
16 *10:28 *21:13 0.00318715
17 *10:28 *21:50 0
*RES
1 pad_ui_in[2] *10:17 16.7466 
2 *10:17 *2425:A 34.8893 
3 *10:17 *10:26 4.5 
4 *10:26 *10:28 62.3571 
5 *10:28 *2518:DIODE 13.8 
6 *10:28 *2473:A 44.5679 
*END

*D_NET *11 0.0195302
*CONN
*P pad_ui_in[3] I
*I *2475:A I *D sky130_fd_sc_hd__and2_2
*I *2519:DIODE I *D sky130_fd_sc_hd__diode_2
*I *2427:A I *D sky130_fd_sc_hd__and2_2
*CAP
1 pad_ui_in[3] 0.000685079
2 *2475:A 0
3 *2519:DIODE 0
4 *2427:A 0
5 *11:55 0.00257838
6 *11:36 0.00257838
7 *11:34 0.00245891
8 *11:27 0.00188545
9 *11:11 0.00502944
10 *11:11 *12:11 0.000734122
11 *11:11 *14:23 9.20385e-05
12 *11:27 *2428:A 0.000185964
13 *11:27 *2437:A 0.000262865
14 *11:27 *2459:A 5.65955e-05
15 *11:27 *2534:CLK 3.13687e-05
16 *11:27 *2534:D 7.47019e-05
17 *11:27 *2534:RESET_B 4.57695e-05
18 *11:27 *12:19 0.000634285
19 *11:27 *12:26 0
20 *11:27 *173:161 3.93247e-05
21 *11:27 *192:8 0.000571292
22 *11:27 *224:8 0.00023565
23 *11:34 *12:26 0
24 *11:34 *20:13 0
25 *11:34 *20:17 0
26 *11:34 *20:21 0
27 *11:34 *21:13 0.00120909
28 *11:55 *199:21 0
29 *10:17 *11:11 0.000141512
30 *10:28 *11:27 0
31 *10:28 *11:34 0
*RES
1 pad_ui_in[3] *11:11 9.64627 
2 *11:11 *11:27 40.8839 
3 *11:27 *2427:A 9.3 
4 *11:11 *11:34 54.3125 
5 *11:34 *11:36 4.5 
6 *11:36 *2519:DIODE 9.3 
7 *11:36 *11:55 45.6786 
8 *11:55 *2475:A 9.3 
*END

*D_NET *12 0.0272366
*CONN
*P pad_ui_in[4] I
*I *2477:A I *D sky130_fd_sc_hd__and2_2
*I *2520:DIODE I *D sky130_fd_sc_hd__diode_2
*I *2429:A I *D sky130_fd_sc_hd__and2_2
*CAP
1 pad_ui_in[4] 0.000387231
2 *2477:A 0
3 *2520:DIODE 0
4 *2429:A 0
5 *12:41 0.00180482
6 *12:26 0.00320049
7 *12:19 0.00285226
8 *12:11 0.00463516
9 *12:11 *13:13 0.00084363
10 *12:11 *14:11 0.00014118
11 *12:11 *14:23 2.28188e-05
12 *12:19 *2437:A 0.000211619
13 *12:19 *2459:A 1.83136e-05
14 *12:19 *2534:CLK 2.59355e-05
15 *12:19 *2534:D 0.000101431
16 *12:19 *13:13 5.28498e-05
17 *12:19 *14:23 0
18 *12:19 *15:13 0
19 *12:19 *173:161 0.000181535
20 *12:19 *224:8 0.000351242
21 *12:26 *13:13 1.90936e-05
22 *12:26 *13:30 0.00454743
23 *12:26 *20:13 0.00183648
24 *12:26 *20:17 0.000146666
25 *12:26 *20:21 7.83659e-05
26 *12:41 *13:30 0.00020455
27 *12:41 *13:55 0.000217478
28 *12:41 *16:49 0.00376319
29 *12:41 *20:13 0.000224394
30 *11:11 *12:11 0.000734122
31 *11:27 *12:19 0.000634285
32 *11:27 *12:26 0
33 *11:34 *12:26 0
*RES
1 pad_ui_in[4] *12:11 9.3956 
2 *12:11 *12:19 43.1875 
3 *12:19 *2429:A 9.3 
4 *12:11 *12:26 57.3482 
5 *12:26 *2520:DIODE 13.8 
6 *12:26 *12:41 45.6607 
7 *12:41 *2477:A 9.3 
*END

*D_NET *13 0.0275844
*CONN
*P pad_ui_in[5] I
*I *2479:A I *D sky130_fd_sc_hd__and2_2
*I *2521:DIODE I *D sky130_fd_sc_hd__diode_2
*I *2431:A I *D sky130_fd_sc_hd__and2_2
*CAP
1 pad_ui_in[5] 0.000517933
2 *2479:A 0.000121
3 *2521:DIODE 5.05799e-05
4 *2431:A 0.00018813
5 *13:55 0.00228088
6 *13:30 0.00438464
7 *13:19 0.00205303
8 *13:13 0.00455701
9 *2431:A *2434:A 0
10 *2431:A *173:182 0
11 *2479:A *2479:B 9.31011e-05
12 *2479:A *258:6 0.000398809
13 *13:13 *2437:A 6.30086e-06
14 *13:13 *14:11 0.000578015
15 *13:13 *14:23 0.000248391
16 *13:13 *15:13 0.00014488
17 *13:19 *2421:B 0.000399841
18 *13:19 *14:23 0.000439209
19 *13:19 *15:17 0.000817864
20 *13:30 *14:45 0
21 *13:55 *14:45 0
22 *13:55 *15:24 0
23 *13:55 *15:34 0
24 *13:55 *19:34 0
25 *13:55 *20:13 7.06649e-06
26 *13:55 *258:6 0.00222823
27 *8:21 *13:19 0.00218443
28 *12:11 *13:13 0.00084363
29 *12:19 *13:13 5.28498e-05
30 *12:26 *13:13 1.90936e-05
31 *12:26 *13:30 0.00454743
32 *12:41 *13:30 0.00020455
33 *12:41 *13:55 0.000217478
*RES
1 pad_ui_in[5] *13:13 10.3892 
2 *13:13 *13:19 47.7321 
3 *13:19 *2431:A 16.6571 
4 *13:13 *13:30 59.625 
5 *13:30 *2521:DIODE 14.3357 
6 *13:30 *13:55 49.6071 
7 *13:55 *2479:A 13.1214 
*END

*D_NET *14 0.0290294
*CONN
*P pad_ui_in[6] I
*I *2522:DIODE I *D sky130_fd_sc_hd__diode_2
*I *2481:A I *D sky130_fd_sc_hd__and2_2
*I *2433:A I *D sky130_fd_sc_hd__and2_2
*CAP
1 pad_ui_in[6] 0.000534224
2 *2522:DIODE 0
3 *2481:A 3.09105e-05
4 *2433:A 1.18735e-05
5 *14:45 0.00227352
6 *14:34 0.0033608
7 *14:23 0.00627449
8 *14:11 0.00574048
9 *2433:A spine_bot_iw[20] 2.21972e-05
10 *2433:A *173:182 9.54798e-06
11 *2481:A *2485:A 0.000230482
12 *2481:A *203:147 8.76257e-05
13 *2481:A *203:149 0.000142856
14 *14:11 *15:13 0.000441981
15 *14:11 *16:11 0.000157779
16 *14:23 spine_bot_iw[10] 4.8817e-05
17 *14:23 spine_bot_iw[3] 2.48858e-05
18 *14:23 spine_bot_iw[9] 4.98422e-05
19 *14:23 *2437:A 0.00153755
20 *14:23 *15:13 6.53397e-05
21 *14:23 *15:17 0.000311033
22 *14:23 *15:24 7.76581e-05
23 *14:23 *163:10 0.00013886
24 *14:34 spine_bot_iw[20] 0.000349336
25 *14:34 spine_bot_iw[22] 0
26 *14:34 *2439:A 0
27 *14:34 *2440:A 0
28 *14:34 *2441:A 1.21955e-05
29 *14:34 *2442:A 0.000123288
30 *14:34 *2443:A 0
31 *14:34 *2444:A 0
32 *14:34 *2540:RESET_B 0
33 *14:34 *2541:CLK 0.000177948
34 *14:34 *2542:CLK 0
35 *14:45 *15:24 0.00498377
36 *8:21 *14:23 0.000288442
37 *11:11 *14:23 9.20385e-05
38 *12:11 *14:11 0.00014118
39 *12:11 *14:23 2.28188e-05
40 *12:19 *14:23 0
41 *13:13 *14:11 0.000578015
42 *13:13 *14:23 0.000248391
43 *13:19 *14:23 0.000439209
44 *13:30 *14:45 0
45 *13:55 *14:45 0
*RES
1 pad_ui_in[6] *14:11 9.64627 
2 *14:11 *14:23 16.9758 
3 *14:23 *2433:A 14.0768 
4 *14:23 *14:34 62.8125 
5 *14:34 *2481:A 15.9786 
6 *14:11 *14:45 62.5089 
7 *14:45 *2522:DIODE 13.8 
*END

*D_NET *15 0.0276988
*CONN
*P pad_ui_in[7] I
*I *2523:DIODE I *D sky130_fd_sc_hd__diode_2
*I *2483:A I *D sky130_fd_sc_hd__and2_2
*I *2435:A I *D sky130_fd_sc_hd__and2_2
*CAP
1 pad_ui_in[7] 0.000568228
2 *2523:DIODE 0
3 *2483:A 0
4 *2435:A 0
5 *15:36 0.00292255
6 *15:34 0.00299949
7 *15:28 0.000178911
8 *15:24 0.00233496
9 *15:17 0.00172454
10 *15:15 0.00172454
11 *15:13 0.00280122
12 *15:13 *2437:A 0.000341461
13 *15:13 *16:11 0.000542987
14 *15:17 *2421:B 0.000399841
15 *15:17 *2435:B 7.32272e-05
16 *15:17 *163:10 0.00122934
17 *15:24 *16:30 0
18 *15:24 *19:34 0
19 *15:24 *19:38 0.000113819
20 *15:24 *19:42 0.000160975
21 *15:28 *16:49 5.41609e-05
22 *15:34 *19:34 0.000151333
23 *15:36 spine_top_iw[16] 9.41642e-05
24 *8:21 *15:17 0.00244057
25 *12:19 *15:13 0
26 *13:13 *15:13 0.00014488
27 *13:19 *15:17 0.000817864
28 *13:55 *15:24 0
29 *13:55 *15:34 0
30 *14:11 *15:13 0.000441981
31 *14:23 *15:13 6.53397e-05
32 *14:23 *15:17 0.000311033
33 *14:23 *15:24 7.76581e-05
34 *14:45 *15:24 0.00498377
*RES
1 pad_ui_in[7] *15:13 10.9274 
2 *15:13 *15:15 4.5 
3 *15:15 *15:17 46.125 
4 *15:17 *2435:A 9.3 
5 *15:13 *15:24 64.1786 
6 *15:24 *15:28 5.85714 
7 *15:28 *15:34 10.9464 
8 *15:34 *15:36 46.5357 
9 *15:36 *2483:A 9.3 
10 *15:28 *2523:DIODE 9.3 
*END

*D_NET *16 0.0289853
*CONN
*P pad_ui_in[8] I
*I *2485:A I *D sky130_fd_sc_hd__and2_2
*I *2524:DIODE I *D sky130_fd_sc_hd__diode_2
*I *2437:A I *D sky130_fd_sc_hd__and2_2
*CAP
1 pad_ui_in[8] 0.000687054
2 *2485:A 0.000433987
3 *2524:DIODE 0
4 *2437:A 0.00411128
5 *16:49 0.00217625
6 *16:41 0.00196932
7 *16:30 0.00287029
8 *16:11 0.00744156
9 *2437:A spine_bot_iw[11] 0
10 *2437:A spine_bot_iw[12] 9.61175e-05
11 *2437:A spine_bot_iw[13] 0
12 *2437:A spine_bot_iw[15] 0.000125747
13 *2437:A spine_bot_iw[17] 7.44857e-05
14 *2437:A spine_bot_iw[18] 9.97767e-06
15 *2437:A spine_bot_iw[20] 4.88185e-05
16 *2437:A spine_bot_iw[2] 4.99511e-05
17 *2437:A spine_bot_iw[4] 0
18 *2437:A spine_bot_iw[6] 1.30861e-05
19 *2437:A spine_bot_iw[7] 0
20 *2437:A spine_bot_iw[8] 4.37712e-06
21 *2437:A *2436:A 1.01912e-05
22 *2485:A *2477:B 2.14658e-05
23 *2485:A *2485:B 0.000144773
24 *2485:A *203:147 0.000219887
25 *2485:A *203:149 4.95365e-05
26 *16:30 *2441:A 0
27 *16:30 *18:13 0
28 *16:30 *19:34 0.0011477
29 *16:30 *19:38 0
30 *16:30 *19:42 0
31 *16:41 *18:13 0
32 *16:41 *19:34 0.000165763
33 *16:49 *203:145 5.31567e-06
34 *2481:A *2485:A 0.000230482
35 *11:27 *2437:A 0.000262865
36 *12:19 *2437:A 0.000211619
37 *12:41 *16:49 0.00376319
38 *13:13 *2437:A 6.30086e-06
39 *14:11 *16:11 0.000157779
40 *14:23 *2437:A 0.00153755
41 *15:13 *2437:A 0.000341461
42 *15:13 *16:11 0.000542987
43 *15:24 *16:30 0
44 *15:28 *16:49 5.41609e-05
*RES
1 pad_ui_in[8] *16:11 9.53973 
2 *16:11 *2437:A 32.5057 
3 *16:11 *16:30 57.3482 
4 *16:30 *2524:DIODE 13.8 
5 *16:30 *16:41 10.0893 
6 *16:41 *16:49 42.8929 
7 *16:49 *2485:A 18.6036 
*END

*D_NET *17 0.0333283
*CONN
*P pad_ui_in[9] I
*I *2525:DIODE I *D sky130_fd_sc_hd__diode_2
*I *2439:A I *D sky130_fd_sc_hd__and2_2
*I *2487:A I *D sky130_fd_sc_hd__and2_2
*CAP
1 pad_ui_in[9] 0.000564968
2 *2525:DIODE 0
3 *2439:A 0.00250578
4 *2487:A 0.00233002
5 *17:42 0.00483504
6 *17:40 0.00232926
7 *17:9 0.00289499
8 *2439:A *2441:A 0.00540273
9 *2439:A *20:25 0.000404681
10 *2487:A pad_uio_oe_n[0] 0
11 *2487:A pad_uio_out[0] 0.000125867
12 *2487:A spine_top_iw[10] 5.46816e-05
13 *2487:A spine_top_iw[11] 0.00021947
14 *2487:A spine_top_iw[12] 0
15 *2487:A spine_top_iw[1] 0
16 *2487:A spine_top_iw[2] 2.59024e-05
17 *2487:A spine_top_iw[3] 2.74485e-05
18 *2487:A spine_top_iw[4] 5.11642e-05
19 *2487:A spine_top_iw[5] 2.74485e-05
20 *2487:A *2489:A 0.0043911
21 *2487:A *18:11 5.16429e-05
22 *2487:A *19:9 0
23 *2487:A *255:18 0.000268113
24 *2487:A *256:18 0.000439598
25 *2487:A *281:18 4.26014e-05
26 *2487:A *283:24 0
27 *17:42 pad_uio_out[0] 0
28 *2469:A *2487:A 0.00011309
29 *8:13 *2487:A 6.92474e-05
30 *8:13 *17:9 0.000756991
31 *8:13 *17:42 1.94945e-05
32 *8:15 *2439:A 0.000309669
33 *8:15 *17:42 0.00506729
34 *14:34 *2439:A 0
*RES
1 pad_ui_in[9] *17:9 5.7412 
2 *17:9 *2487:A 34.2126 
3 *17:9 *17:40 3.41 
4 *17:40 *17:42 64.3304 
5 *17:42 *2439:A 34.0159 
6 *17:42 *2525:DIODE 13.8 
*END

*D_NET *18 0.0335757
*CONN
*P pad_uio_in[0] I
*I *2489:A I *D sky130_fd_sc_hd__and2_2
*I *2526:DIODE I *D sky130_fd_sc_hd__diode_2
*I *2441:A I *D sky130_fd_sc_hd__and2_2
*CAP
1 pad_uio_in[0] 0.000621711
2 *2489:A 0.00289345
3 *2526:DIODE 0
4 *2441:A 0.0032172
5 *18:13 0.00651504
6 *18:11 0.006813
7 *2441:A *19:44 0.000255693
8 *2441:A *21:64 0.000460772
9 *2441:A *22:40 0.000114827
10 *2441:A *173:107 0.000156913
11 *2489:A pad_uio_oe_n[1] 1.01737e-05
12 *2489:A pad_uio_oe_n[2] 0.00017956
13 *2489:A pad_uio_out[0] 6.27272e-06
14 *2489:A pad_uio_out[1] 0
15 *2489:A pad_uio_out[2] 0
16 *2489:A pad_uio_out[3] 0
17 *2489:A spine_top_iw[0] 0
18 *2489:A spine_top_iw[13] 0.000101672
19 *2489:A spine_top_iw[17] 1.21955e-05
20 *2489:A spine_top_iw[20] 0
21 *2489:A spine_top_iw[21] 0
22 *2489:A *2659:A 0
23 *2489:A *22:17 5.00194e-05
24 *2489:A *203:205 0.000100368
25 *2489:A *255:18 0
26 *2489:A *256:18 0.000987692
27 *18:11 pad_uio_out[0] 0.000346426
28 *18:11 *19:9 0
29 *2439:A *2441:A 0.00540273
30 *2487:A *2489:A 0.0043911
31 *2487:A *18:11 5.16429e-05
32 *8:13 *18:11 1.06555e-05
33 *8:15 *2489:A 0
34 *9:11 *18:11 0.00086441
35 *9:13 *2441:A 0
36 *9:13 *18:13 0
37 *9:23 *2441:A 0
38 *9:43 *2489:A 0
39 *9:43 *18:13 0
40 *14:34 *2441:A 1.21955e-05
41 *16:30 *2441:A 0
42 *16:30 *18:13 0
43 *16:41 *18:13 0
*RES
1 pad_uio_in[0] *18:11 9.64627 
2 *18:11 *18:13 60.6875 
3 *18:13 *2441:A 34.3348 
4 *18:13 *2526:DIODE 13.8 
5 *18:11 *2489:A 33.344 
*END

*D_NET *19 0.0337066
*CONN
*P pad_uio_in[1] I
*I *2527:DIODE I *D sky130_fd_sc_hd__diode_2
*I *2443:A I *D sky130_fd_sc_hd__and2_2
*I *2491:A I *D sky130_fd_sc_hd__and2_2
*CAP
1 pad_uio_in[1] 0.000874882
2 *2527:DIODE 0
3 *2443:A 9.02926e-05
4 *2491:A 0.00319686
5 *19:44 0.00343105
6 *19:42 0.00361634
7 *19:38 0.000442809
8 *19:34 0.00262326
9 *19:32 0.00245604
10 *19:9 0.00407174
11 *2443:A *2442:A 2.56694e-05
12 *2443:A *2444:A 0
13 *2491:A spine_top_iw[14] 0.000464962
14 *2491:A spine_top_iw[15] 9.73405e-05
15 *2491:A spine_top_iw[16] 7.44487e-05
16 *2491:A spine_top_iw[18] 0.000245664
17 *2491:A spine_top_iw[19] 0
18 *2491:A spine_top_iw[6] 0.000151376
19 *2491:A *2493:A 0
20 *2491:A *20:11 0.000520171
21 *2491:A *21:11 0.000277359
22 *2491:A *21:28 0.000101825
23 *2491:A *255:18 0.00396851
24 *2491:A *279:10 0.00022614
25 *19:9 pad_uio_oe_n[0] 0.000146026
26 *19:9 pad_uio_oe_n[1] 3.0749e-05
27 *19:9 pad_uio_out[0] 4.56302e-05
28 *19:9 pad_uio_out[1] 8.37907e-05
29 *19:9 *20:11 0
30 *19:9 *255:18 6.8293e-05
31 *19:44 *22:40 0.0035599
32 *2441:A *19:44 0.000255693
33 *2487:A *19:9 0
34 *9:11 *19:9 0
35 *9:23 *19:44 0.000820194
36 *13:55 *19:34 0
37 *14:34 *2443:A 0
38 *15:24 *19:34 0
39 *15:24 *19:38 0.000113819
40 *15:24 *19:42 0.000160975
41 *15:34 *19:34 0.000151333
42 *16:30 *19:34 0.0011477
43 *16:30 *19:38 0
44 *16:30 *19:42 0
45 *16:41 *19:34 0.000165763
46 *18:11 *19:9 0
*RES
1 pad_uio_in[1] *19:9 6.27073 
2 *19:9 *2491:A 29.2206 
3 *19:9 *19:32 3.41 
4 *19:32 *19:34 56.4464 
5 *19:34 *19:38 4.29464 
6 *19:38 *19:42 10.3929 
7 *19:42 *19:44 48.1786 
8 *19:44 *2443:A 19.9429 
9 *19:38 *2527:DIODE 13.8 
*END

*D_NET *20 0.0315764
*CONN
*P pad_uio_in[2] I
*I *2493:A I *D sky130_fd_sc_hd__and2_2
*I *2528:DIODE I *D sky130_fd_sc_hd__diode_2
*I *2445:A I *D sky130_fd_sc_hd__and2_2
*CAP
1 pad_uio_in[2] 0.000721781
2 *2493:A 0.000102405
3 *2528:DIODE 0
4 *2445:A 0
5 *20:45 0.00320997
6 *20:41 0.00322006
7 *20:25 0.00346311
8 *20:21 0.00351165
9 *20:17 0.000124457
10 *20:13 0.0027225
11 *20:11 0.00348086
12 *2493:A spine_top_iw[24] 4.1331e-06
13 *20:11 pad_uio_oe_n[1] 0.000233334
14 *20:11 pad_uio_oe_n[2] 5.06511e-05
15 *20:11 pad_uio_out[2] 8.37907e-05
16 *20:11 *21:11 0
17 *20:11 *255:18 0.000499846
18 *20:13 pad_uio_oe_n[2] 0
19 *20:13 *21:13 0
20 *20:25 *21:64 0.00286698
21 *20:41 pad_uio_oe_n[2] 0
22 *20:45 *256:18 0.000233689
23 *20:45 *281:18 0.00101496
24 *2439:A *20:25 0.000404681
25 *2491:A *2493:A 0
26 *2491:A *20:11 0.000520171
27 *9:43 *20:45 0.0028144
28 *11:34 *20:13 0
29 *11:34 *20:17 0
30 *11:34 *20:21 0
31 *12:26 *20:13 0.00183648
32 *12:26 *20:17 0.000146666
33 *12:26 *20:21 7.83659e-05
34 *12:41 *20:13 0.000224394
35 *13:55 *20:13 7.06649e-06
36 *19:9 *20:11 0
*RES
1 pad_uio_in[2] *20:11 9.64627 
2 *20:11 *20:13 61.4464 
3 *20:13 *20:17 2.33036 
4 *20:17 *20:21 5.53571 
5 *20:21 *20:25 48.0893 
6 *20:25 *2445:A 9.3 
7 *20:17 *2528:DIODE 13.8 
8 *20:11 *20:41 6.29464 
9 *20:41 *20:45 48.9821 
10 *20:45 *2493:A 15.4429 
*END

*D_NET *21 0.0277065
*CONN
*P pad_uio_in[3] I
*I *2447:A I *D sky130_fd_sc_hd__and2_2
*I *2495:A I *D sky130_fd_sc_hd__and2_2
*I *2529:DIODE I *D sky130_fd_sc_hd__diode_2
*CAP
1 pad_uio_in[3] 0.000801703
2 *2447:A 0
3 *2495:A 0.000108076
4 *2529:DIODE 0.000273658
5 *21:64 0.00136092
6 *21:50 0.00147349
7 *21:28 0.00396809
8 *21:13 0.00209973
9 *21:11 0.00660035
10 *2495:A *281:12 2.39664e-05
11 *21:11 pad_uio_oe_n[2] 0.000316849
12 *21:11 pad_uio_out[3] 0.000171098
13 *21:13 pad_uio_oe_n[2] 1.53815e-05
14 *21:13 pad_uio_oe_n[3] 0
15 *21:28 pad_uio_oe_n[2] 1.15246e-05
16 *21:28 *2512:A 1.92905e-05
17 *21:28 *2629:A 0.000329173
18 *21:64 *2443:B 0
19 *21:64 *2538:CLK 2.89114e-05
20 *21:64 *173:66 0.000188586
21 *21:64 *173:70 0.000285746
22 *21:64 *173:79 0.000101157
23 *21:64 *173:88 0.000106467
24 *21:64 *173:107 0.000547282
25 *21:64 *227:14 0.00032738
26 *2441:A *21:64 0.000460772
27 *2473:A *21:13 0.0004445
28 *2491:A *21:11 0.000277359
29 *2491:A *21:28 0.000101825
30 *10:28 *21:13 0.00318715
31 *10:28 *21:50 0
32 *11:34 *21:13 0.00120909
33 *20:11 *21:11 0
34 *20:13 *21:13 0
35 *20:25 *21:64 0.00286698
*RES
1 pad_uio_in[3] *21:11 9.499 
2 *21:11 *21:13 60.3839 
3 *21:13 *2529:DIODE 15.5679 
4 *21:11 *21:28 49.5625 
5 *21:28 *2495:A 19.9429 
6 *2529:DIODE *21:50 19.9429 
7 *21:50 *21:64 46.4464 
8 *21:64 *2447:A 9.3 
*END

*D_NET *22 0.0268451
*CONN
*P pad_uio_in[4] I
*I *2530:DIODE I *D sky130_fd_sc_hd__diode_2
*I *2449:A I *D sky130_fd_sc_hd__and2_2
*I *2497:A I *D sky130_fd_sc_hd__and2_2
*CAP
1 pad_uio_in[4] 0.000951856
2 *2530:DIODE 0
3 *2449:A 5.15058e-05
4 *2497:A 0
5 *22:40 0.00147732
6 *22:34 0.00180725
7 *22:30 0.00391604
8 *22:28 0.0035346
9 *22:21 0.00197737
10 *22:17 0.00292922
11 *2449:A *173:59 0.00014285
12 *22:17 pad_uio_oe_n[3] 0.000161306
13 *22:17 pad_uio_out[3] 5.52192e-06
14 *22:17 pad_uio_out[4] 5.42138e-05
15 *22:17 spine_top_iw[0] 0
16 *22:21 *203:82 0.000370603
17 *22:21 *203:91 0.000161975
18 *22:21 *203:102 0.00015721
19 *22:21 *203:109 0.000229355
20 *22:21 *203:192 0.00030455
21 *22:21 *203:205 0.000646758
22 *22:21 *203:212 0.00053418
23 *22:21 *280:14 2.75484e-05
24 *22:30 pad_uio_oe_n[3] 0
25 *22:30 *2630:A 0
26 *22:30 *281:18 0
27 *22:30 *282:14 7.44731e-05
28 *22:40 spine_bot_iw[21] 5.03772e-05
29 *22:40 *2446:A 0
30 *22:40 *2448:A 3.56976e-05
31 *22:40 *2539:RESET_B 0
32 *22:40 *173:107 9.90431e-05
33 *22:40 *173:118 0.000481568
34 *2441:A *22:40 0.000114827
35 *2469:A *22:17 0.000439194
36 *2469:A *22:21 0.00117323
37 *2489:A *22:17 5.00194e-05
38 *9:23 *22:40 0.0013255
39 *19:44 *22:40 0.0035599
*RES
1 pad_uio_in[4] *22:17 18.4031 
2 *22:17 *22:21 40.8036 
3 *22:21 *2497:A 9.3 
4 *22:17 *22:28 4.5 
5 *22:28 *22:30 63.5714 
6 *22:30 *22:34 10.6964 
7 *22:34 *22:40 47.6429 
8 *22:40 *2449:A 15.1571 
9 *22:30 *2530:DIODE 13.8 
*END

*D_NET *23 0.0310973
*CONN
*P pad_uio_in[5] I
*I *2499:A I *D sky130_fd_sc_hd__and2_2
*I *2451:A I *D sky130_fd_sc_hd__and2_2
*I *2531:DIODE I *D sky130_fd_sc_hd__diode_2
*CAP
1 pad_uio_in[5] 0.000696431
2 *2499:A 0.00161374
3 *2451:A 0.000104186
4 *2531:DIODE 0
5 *23:55 0.00336296
6 *23:30 0.001855
7 *23:19 0.00177474
8 *23:15 0.00293695
9 *23:13 0.00535867
10 *2451:A *173:18 8.38872e-05
11 *2499:A *2501:A 0.00214478
12 *2499:A *2502:A 9.99853e-05
13 *2499:A *203:38 2.06653e-05
14 *2499:A *203:45 0.000101859
15 *2499:A *280:12 7.48301e-06
16 *23:13 pad_uio_oe_n[4] 0.000316139
17 *23:13 pad_uio_out[5] 0.000314077
18 *23:13 *2608:A 0.000372662
19 *23:13 *2624:S 3.97543e-05
20 *23:13 *2625:A1 9.54313e-05
21 *23:13 *250:12 0
22 *23:15 spine_top_ow[24] 0
23 *23:15 *2608:A 0.000150618
24 *23:15 *2616:A 0.000114829
25 *23:15 *2623:A0 0
26 *23:15 *2623:S 0
27 *23:15 *2625:A1 8.00806e-05
28 *23:15 *2626:A0 0.000189584
29 *23:15 *2626:A1 4.15914e-05
30 *23:15 *2658:A0 0
31 *23:15 *96:8 0.00231062
32 *23:15 *152:20 0
33 *23:15 *250:12 0
34 *23:15 *308:12 0.000130283
35 *23:19 *24:66 3.18676e-05
36 *23:30 *2455:A 0.00144463
37 *23:30 *2456:A 4.82947e-05
38 *23:30 *2690:A1 2.28499e-05
39 *23:30 *2690:S 0.0017783
40 *23:30 *24:66 0.00111984
41 *23:30 *25:52 1.02936e-05
42 *23:55 *2636:A 0
43 *23:55 *2638:A 0.000144773
44 *23:55 *2654:A0 3.47641e-06
45 *23:55 *2654:A1 4.15914e-05
46 *23:55 *2658:A0 0.000400015
47 *23:55 *2689:A1 0
48 *23:55 *139:8 4.1331e-06
49 *23:55 *238:74 0.000458639
50 *23:55 *238:76 0.000238208
51 *23:55 *238:78 0.000446023
52 *23:55 *238:91 3.80079e-05
53 *23:55 *238:100 1.21258e-05
54 *23:55 *304:24 0.000537171
*RES
1 pad_uio_in[5] *23:13 13.5523 
2 *23:13 *23:15 72.0714 
3 *23:15 *23:19 5.03571 
4 *23:19 *2531:DIODE 9.3 
5 *23:19 *23:30 47.9107 
6 *23:30 *2451:A 20.55 
7 *23:13 *23:55 43 
8 *23:55 *2499:A 33.8179 
*END

*D_NET *24 0.029327
*CONN
*P pad_uio_in[6] I
*I *2453:A I *D sky130_fd_sc_hd__and2_2
*I *2501:A I *D sky130_fd_sc_hd__and2_2
*I *2532:DIODE I *D sky130_fd_sc_hd__diode_2
*CAP
1 pad_uio_in[6] 0.000774441
2 *2453:A 0.00145082
3 *2501:A 0.00105095
4 *2532:DIODE 0.000643999
5 *24:66 0.00209481
6 *24:36 0.00235423
7 *24:15 0.00392761
8 *24:13 0.00600533
9 *2453:A *2360:A 9.99853e-05
10 *2453:A *2368:A 0.000100261
11 *2453:A *2680:A 0.000271345
12 *2453:A *2690:A0 9.60771e-05
13 *2453:A *166:10 9.47028e-05
14 *2501:A *2397:A 0.000362992
15 *2501:A *2637:A 7.61932e-05
16 *2501:A *2649:A 0.000216751
17 *2501:A *2650:A 5.33433e-05
18 *2501:A *140:8 9.90367e-05
19 *2501:A *144:22 9.90431e-05
20 *2501:A *170:70 0.000401056
21 *2501:A *170:72 4.43256e-05
22 *2501:A *171:106 0.000534229
23 *2501:A *270:14 5.74699e-05
24 *2501:A *280:12 0.000276808
25 *24:13 pad_uio_oe_n[5] 5.42138e-05
26 *24:13 pad_uio_out[5] 0.000131604
27 *24:13 pad_uio_out[6] 5.87187e-05
28 *24:13 *2632:A 0
29 *24:13 *2666:A 0
30 *24:13 *250:12 0
31 *24:15 pad_uio_out[5] 0.000506572
32 *24:15 *2625:A0 0
33 *24:15 *2666:A 0
34 *24:15 *250:12 0
35 *24:36 *2401:A 0.000100124
36 *24:36 *2401:TE_B 2.58821e-05
37 *24:36 *2620:A1 0
38 *24:36 *2624:A1 9.46929e-05
39 *24:36 *2692:A 0.000337515
40 *24:36 *146:19 0
41 *24:36 *170:76 4.18895e-05
42 *24:36 *170:78 0.000213172
43 *24:36 *170:82 0.000486628
44 *24:36 *171:51 0.000109842
45 *24:66 *25:52 0.00260781
46 *24:66 *84:22 7.6021e-05
47 *24:66 *85:22 0
48 *2499:A *2501:A 0.00214478
49 *23:19 *24:66 3.18676e-05
50 *23:30 *24:66 0.00111984
*RES
1 pad_uio_in[6] *24:13 15.0221 
2 *24:13 *24:15 74.5 
3 *24:15 *2532:DIODE 13.8 
4 *24:13 *24:36 33.8929 
5 *24:36 *2501:A 44.425 
6 *2532:DIODE *24:66 45.0143 
7 *24:66 *2453:A 34.4786 
*END

*D_NET *25 0.0326687
*CONN
*P pad_uio_in[7] I
*I *2455:A I *D sky130_fd_sc_hd__and2_2
*I *2503:A I *D sky130_fd_sc_hd__and2_2
*I *2533:DIODE I *D sky130_fd_sc_hd__diode_2
*CAP
1 pad_uio_in[7] 0.00112896
2 *2455:A 0.00131763
3 *2503:A 0.000433587
4 *2533:DIODE 0.00216483
5 *25:52 0.00348246
6 *25:34 0.00342948
7 *25:13 0.00394448
8 *25:11 0.00806934
9 *2503:A *2503:B 5.49544e-05
10 *2503:A *2652:S 5.49544e-05
11 *2503:A *2653:A0 2.28598e-05
12 *2503:A *2653:A1 4.36581e-05
13 *2503:A *238:51 0.00022266
14 *2503:A *238:267 0.000310068
15 *2503:A *255:18 0.000233689
16 *2503:A *279:8 0.000391062
17 *2503:A *281:12 0.000159269
18 *2503:A *282:8 0.00199244
19 *2503:A *304:24 1.39726e-05
20 *25:11 pad_uio_oe_n[6] 5.42138e-05
21 *25:11 pad_uio_oe_n[7] 6.39048e-05
22 *25:11 pad_uio_out[6] 5.52192e-06
23 *25:11 pad_uio_out[7] 2.4637e-05
24 *25:11 pad_uo_out[1] 0
25 *25:13 pad_uio_out[5] 0
26 *25:34 *2408:TE_B 0.000116
27 *25:34 *2654:A0 3.80667e-05
28 *25:34 *2689:A0 1.07719e-05
29 *25:34 *2689:A1 0.00014681
30 *25:34 *170:88 7.02611e-05
31 *25:34 *238:45 2.51343e-06
32 *25:34 *283:12 9.71197e-05
33 *25:34 *309:16 0.000505752
34 *3:24 *25:13 0
35 *23:30 *2455:A 0.00144463
36 *23:30 *25:52 1.02936e-05
37 *24:66 *25:52 0.00260781
*RES
1 pad_uio_in[7] *25:11 9.78727 
2 *25:11 *25:13 70.0982 
3 *25:13 *2533:DIODE 13.8 
4 *25:11 *25:34 48.8661 
5 *25:34 *2503:A 33.6393 
6 *2533:DIODE *25:52 39.8357 
7 *25:52 *2455:A 34.9071 
*END

*D_NET *26 0.000801564
*CONN
*P pad_uio_oe_n[0] O
*I *2627:Y O *D sky130_fd_sc_hd__bufinv_8
*CAP
1 pad_uio_oe_n[0] 0.000257008
2 *2627:Y 0.000257008
3 pad_uio_oe_n[0] pad_uio_out[0] 0.000141522
4 *2487:A pad_uio_oe_n[0] 0
5 *19:9 pad_uio_oe_n[0] 0.000146026
*RES
1 *2627:Y pad_uio_oe_n[0] 23.708 
*END

*D_NET *27 0.000798243
*CONN
*P pad_uio_oe_n[1] O
*I *2628:Y O *D sky130_fd_sc_hd__bufinv_8
*CAP
1 pad_uio_oe_n[1] 0.000217594
2 *2628:Y 0.000217594
3 pad_uio_oe_n[1] pad_uio_out[1] 8.87976e-05
4 *2489:A pad_uio_oe_n[1] 1.01737e-05
5 *19:9 pad_uio_oe_n[1] 3.0749e-05
6 *20:11 pad_uio_oe_n[1] 0.000233334
*RES
1 *2628:Y pad_uio_oe_n[1] 22.1341 
*END

*D_NET *28 0.00234226
*CONN
*P pad_uio_oe_n[2] O
*I *2629:Y O *D sky130_fd_sc_hd__bufinv_8
*CAP
1 pad_uio_oe_n[2] 0.000799539
2 *2629:Y 0.000799539
3 pad_uio_oe_n[2] pad_uio_oe_n[3] 0
4 pad_uio_oe_n[2] pad_uio_out[2] 8.37907e-05
5 pad_uio_oe_n[2] *2660:A 0
6 pad_uio_oe_n[2] *256:18 8.54239e-05
7 *2489:A pad_uio_oe_n[2] 0.00017956
8 *20:11 pad_uio_oe_n[2] 5.06511e-05
9 *20:13 pad_uio_oe_n[2] 0
10 *20:41 pad_uio_oe_n[2] 0
11 *21:11 pad_uio_oe_n[2] 0.000316849
12 *21:13 pad_uio_oe_n[2] 1.53815e-05
13 *21:28 pad_uio_oe_n[2] 1.15246e-05
*RES
1 *2629:Y pad_uio_oe_n[2] 28.9575 
*END

*D_NET *29 0.00263825
*CONN
*P pad_uio_oe_n[3] O
*I *2630:Y O *D sky130_fd_sc_hd__bufinv_8
*CAP
1 pad_uio_oe_n[3] 0.00121136
2 *2630:Y 0.00121136
3 pad_uio_oe_n[3] pad_uio_out[3] 5.42138e-05
4 pad_uio_oe_n[3] pad_uio_out[4] 0
5 pad_uio_oe_n[3] *256:18 0
6 pad_uio_oe_n[3] *282:14 0
7 pad_uio_oe_n[2] pad_uio_oe_n[3] 0
8 *21:13 pad_uio_oe_n[3] 0
9 *22:17 pad_uio_oe_n[3] 0.000161306
10 *22:30 pad_uio_oe_n[3] 0
*RES
1 *2630:Y pad_uio_oe_n[3] 37.8724 
*END

*D_NET *30 0.00351355
*CONN
*P pad_uio_oe_n[4] O
*I *2631:Y O *D sky130_fd_sc_hd__bufinv_8
*CAP
1 pad_uio_oe_n[4] 0.0010522
2 *2631:Y 0.0010522
3 pad_uio_oe_n[4] pad_uio_out[5] 5.04817e-05
4 pad_uio_oe_n[4] spine_top_ow[24] 0
5 pad_uio_oe_n[4] *2596:DIODE 0
6 pad_uio_oe_n[4] *2625:A0 0.000351009
7 pad_uio_oe_n[4] *2634:A 0.000222878
8 pad_uio_oe_n[4] *250:12 0.000468634
9 *23:13 pad_uio_oe_n[4] 0.000316139
*RES
1 *2631:Y pad_uio_oe_n[4] 33.931 
*END

*D_NET *31 0.0015712
*CONN
*P pad_uio_oe_n[5] O
*I *2632:Y O *D sky130_fd_sc_hd__bufinv_8
*CAP
1 pad_uio_oe_n[5] 0.000629694
2 *2632:Y 0.000629694
3 pad_uio_oe_n[5] pad_uio_out[5] 0.000251441
4 pad_uio_oe_n[5] pad_uio_out[6] 6.15482e-06
5 pad_uio_oe_n[5] *2666:A 0
6 *24:13 pad_uio_oe_n[5] 5.42138e-05
*RES
1 *2632:Y pad_uio_oe_n[5] 22.601 
*END

*D_NET *32 0.00131932
*CONN
*P pad_uio_oe_n[6] O
*I *2633:Y O *D sky130_fd_sc_hd__bufinv_8
*CAP
1 pad_uio_oe_n[6] 0.000605446
2 *2633:Y 0.000605446
3 pad_uio_oe_n[6] pad_uio_oe_n[7] 0
4 pad_uio_oe_n[6] pad_uio_out[6] 5.42138e-05
5 pad_uio_oe_n[6] pad_uio_out[7] 0
6 pad_uio_oe_n[6] pad_uo_out[0] 0
7 *25:11 pad_uio_oe_n[6] 5.42138e-05
*RES
1 *2633:Y pad_uio_oe_n[6] 28.1582 
*END

*D_NET *33 0.00284823
*CONN
*P pad_uio_oe_n[7] O
*I *2634:Y O *D sky130_fd_sc_hd__bufinv_8
*CAP
1 pad_uio_oe_n[7] 0.000734155
2 *2634:Y 0.000734155
3 pad_uio_oe_n[7] pad_uio_out[7] 0.000132386
4 pad_uio_oe_n[7] pad_uo_out[0] 0.00117705
5 pad_uio_oe_n[7] pad_uo_out[1] 6.58299e-06
6 pad_uio_oe_n[6] pad_uio_oe_n[7] 0
7 *25:11 pad_uio_oe_n[7] 6.39048e-05
*RES
1 *2634:Y pad_uio_oe_n[7] 33.0787 
*END

*D_NET *34 0.00135163
*CONN
*P pad_uio_out[0] O
*I *2659:Y O *D sky130_fd_sc_hd__bufinv_8
*CAP
1 pad_uio_out[0] 0.000342956
2 *2659:Y 0.000342956
3 pad_uio_oe_n[0] pad_uio_out[0] 0.000141522
4 *2487:A pad_uio_out[0] 0.000125867
5 *2489:A pad_uio_out[0] 6.27272e-06
6 *17:42 pad_uio_out[0] 0
7 *18:11 pad_uio_out[0] 0.000346426
8 *19:9 pad_uio_out[0] 4.56302e-05
*RES
1 *2659:Y pad_uio_out[0] 23.08 
*END

*D_NET *35 0.000748205
*CONN
*P pad_uio_out[1] O
*I *2660:Y O *D sky130_fd_sc_hd__bufinv_8
*CAP
1 pad_uio_out[1] 0.000287808
2 *2660:Y 0.000287808
3 pad_uio_oe_n[1] pad_uio_out[1] 8.87976e-05
4 *2489:A pad_uio_out[1] 0
5 *19:9 pad_uio_out[1] 8.37907e-05
*RES
1 *2660:Y pad_uio_out[1] 22.8004 
*END

*D_NET *36 0.000919519
*CONN
*P pad_uio_out[2] O
*I *2661:Y O *D sky130_fd_sc_hd__bufinv_8
*CAP
1 pad_uio_out[2] 0.000375969
2 *2661:Y 0.000375969
3 pad_uio_oe_n[2] pad_uio_out[2] 8.37907e-05
4 *2489:A pad_uio_out[2] 0
5 *20:11 pad_uio_out[2] 8.37907e-05
*RES
1 *2661:Y pad_uio_out[2] 23.0166 
*END

*D_NET *37 0.000878074
*CONN
*P pad_uio_out[3] O
*I *2662:Y O *D sky130_fd_sc_hd__bufinv_8
*CAP
1 pad_uio_out[3] 0.00032362
2 *2662:Y 0.00032362
3 pad_uio_out[3] *2660:A 0
4 pad_uio_oe_n[3] pad_uio_out[3] 5.42138e-05
5 *2489:A pad_uio_out[3] 0
6 *21:11 pad_uio_out[3] 0.000171098
7 *22:17 pad_uio_out[3] 5.52192e-06
*RES
1 *2662:Y pad_uio_out[3] 23.2794 
*END

*D_NET *38 0.000962048
*CONN
*P pad_uio_out[4] O
*I *2663:Y O *D sky130_fd_sc_hd__bufinv_8
*CAP
1 pad_uio_out[4] 0.000453917
2 *2663:Y 0.000453917
3 pad_uio_out[4] spine_top_iw[0] 0
4 pad_uio_out[4] *281:18 0
5 pad_uio_oe_n[3] pad_uio_out[4] 0
6 *22:17 pad_uio_out[4] 5.42138e-05
*RES
1 *2663:Y pad_uio_out[4] 25.426 
*END

*D_NET *39 0.00365699
*CONN
*P pad_uio_out[5] O
*I *2664:Y O *D sky130_fd_sc_hd__bufinv_8
*CAP
1 pad_uio_out[5] 0.00120141
2 *2664:Y 0.00120141
3 pad_uio_oe_n[4] pad_uio_out[5] 5.04817e-05
4 pad_uio_oe_n[5] pad_uio_out[5] 0.000251441
5 *23:13 pad_uio_out[5] 0.000314077
6 *24:13 pad_uio_out[5] 0.000131604
7 *24:15 pad_uio_out[5] 0.000506572
8 *25:13 pad_uio_out[5] 0
*RES
1 *2664:Y pad_uio_out[5] 35.0547 
*END

*D_NET *40 0.000778692
*CONN
*P pad_uio_out[6] O
*I *2665:Y O *D sky130_fd_sc_hd__bufinv_8
*CAP
1 pad_uio_out[6] 0.000327042
2 *2665:Y 0.000327042
3 pad_uio_oe_n[5] pad_uio_out[6] 6.15482e-06
4 pad_uio_oe_n[6] pad_uio_out[6] 5.42138e-05
5 *24:13 pad_uio_out[6] 5.87187e-05
6 *25:11 pad_uio_out[6] 5.52192e-06
*RES
1 *2665:Y pad_uio_out[6] 21.6551 
*END

*D_NET *41 0.000983175
*CONN
*P pad_uio_out[7] O
*I *2666:Y O *D sky130_fd_sc_hd__bufinv_8
*CAP
1 pad_uio_out[7] 0.000413076
2 *2666:Y 0.000413076
3 pad_uio_oe_n[6] pad_uio_out[7] 0
4 pad_uio_oe_n[7] pad_uio_out[7] 0.000132386
5 *25:11 pad_uio_out[7] 2.4637e-05
*RES
1 *2666:Y pad_uio_out[7] 26.3896 
*END

*D_NET *42 0.00347276
*CONN
*P pad_uo_out[0] O
*I *2691:Y O *D sky130_fd_sc_hd__bufinv_8
*CAP
1 pad_uo_out[0] 0.00100161
2 *2691:Y 0.00100161
3 pad_uo_out[0] pad_uo_out[1] 0.000292488
4 pad_uio_oe_n[6] pad_uo_out[0] 0
5 pad_uio_oe_n[7] pad_uo_out[0] 0.00117705
*RES
1 *2691:Y pad_uo_out[0] 38.5806 
*END

*D_NET *43 0.00120337
*CONN
*P pad_uo_out[1] O
*I *2692:Y O *D sky130_fd_sc_hd__bufinv_8
*CAP
1 pad_uo_out[1] 0.000288795
2 *2692:Y 0.000288795
3 pad_uo_out[1] pad_uo_out[2] 0.000326712
4 pad_uo_out[1] pad_uo_out[4] 0
5 pad_uio_oe_n[7] pad_uo_out[1] 6.58299e-06
6 pad_uo_out[0] pad_uo_out[1] 0.000292488
7 *25:11 pad_uo_out[1] 0
*RES
1 *2692:Y pad_uo_out[1] 22.4353 
*END

*D_NET *44 0.00198554
*CONN
*P pad_uo_out[2] O
*I *2693:Y O *D sky130_fd_sc_hd__bufinv_8
*CAP
1 pad_uo_out[2] 0.000670633
2 *2693:Y 0.000670633
3 pad_uo_out[2] pad_uo_out[3] 0.00031756
4 pad_uo_out[1] pad_uo_out[2] 0.000326712
*RES
1 *2693:Y pad_uo_out[2] 30.9537 
*END

*D_NET *45 0.00221455
*CONN
*P pad_uo_out[3] O
*I *2694:Y O *D sky130_fd_sc_hd__bufinv_8
*CAP
1 pad_uo_out[3] 0.000787976
2 *2694:Y 0.000787976
3 pad_uo_out[3] pad_uo_out[4] 0.000321042
4 pad_uo_out[2] pad_uo_out[3] 0.00031756
*RES
1 *2694:Y pad_uo_out[3] 33.0787 
*END

*D_NET *46 0.0030153
*CONN
*P pad_uo_out[4] O
*I *2695:Y O *D sky130_fd_sc_hd__bufinv_8
*CAP
1 pad_uo_out[4] 0.00097228
2 *2695:Y 0.00097228
3 pad_uo_out[4] pad_uo_out[5] 0.000749703
4 pad_uo_out[1] pad_uo_out[4] 0
5 pad_uo_out[3] pad_uo_out[4] 0.000321042
*RES
1 *2695:Y pad_uo_out[4] 33.931 
*END

*D_NET *47 0.00278661
*CONN
*P pad_uo_out[5] O
*I *2696:Y O *D sky130_fd_sc_hd__bufinv_8
*CAP
1 pad_uo_out[5] 0.000947693
2 *2696:Y 0.000947693
3 pad_uo_out[5] pad_uo_out[6] 0.000141522
4 pad_uo_out[4] pad_uo_out[5] 0.000749703
*RES
1 *2696:Y pad_uo_out[5] 31.0541 
*END

*D_NET *48 0.00113697
*CONN
*P pad_uo_out[6] O
*I *2697:Y O *D sky130_fd_sc_hd__bufinv_8
*CAP
1 pad_uo_out[6] 0.000497725
2 *2697:Y 0.000497725
3 pad_uo_out[5] pad_uo_out[6] 0.000141522
*RES
1 *2697:Y pad_uo_out[6] 26.6359 
*END

*D_NET *49 0.00121677
*CONN
*P pad_uo_out[7] O
*I *2698:Y O *D sky130_fd_sc_hd__bufinv_8
*CAP
1 pad_uo_out[7] 0.000452009
2 *2698:Y 0.000452009
3 k_one pad_uo_out[7] 0
4 *3:13 pad_uo_out[7] 0.000312753
*RES
1 *2698:Y pad_uo_out[7] 23.8497 
*END

*D_NET *50 0.000691058
*CONN
*P spine_bot_iw[0] O
*I *2466:LO O *D sky130_fd_sc_hd__conb_1
*CAP
1 spine_bot_iw[0] 0.000312116
2 *2466:LO 0.000312116
3 spine_bot_iw[0] spine_bot_iw[1] 5.42046e-05
4 spine_bot_iw[0] spine_bot_iw[2] 1.26208e-05
*RES
1 *2466:LO spine_bot_iw[0] 23.833 
*END

*D_NET *51 0.00515951
*CONN
*P spine_bot_iw[10] O
*I *2465:X O *D sky130_fd_sc_hd__buf_8
*CAP
1 spine_bot_iw[10] 0.00140295
2 *2465:X 0.00140295
3 spine_bot_iw[10] spine_bot_iw[11] 0.000112648
4 spine_bot_iw[10] spine_bot_iw[12] 5.43555e-05
5 spine_bot_iw[10] spine_bot_iw[9] 0.000528987
6 spine_bot_iw[10] *2424:A 0.000317594
7 spine_bot_iw[10] *2462:A 0.000514323
8 spine_bot_iw[10] *2463:A 0.000195481
9 spine_bot_iw[10] *2510:A 0.00024338
10 spine_bot_iw[10] *2535:CLK 0.00011549
11 spine_bot_iw[10] *2536:CLK 0
12 spine_bot_iw[10] *2537:CLK 0
13 spine_bot_iw[10] *2538:CLK 0.000183139
14 spine_bot_iw[10] *2538:RESET_B 0
15 spine_bot_iw[10] *173:107 3.93986e-05
16 *14:23 spine_bot_iw[10] 4.8817e-05
*RES
1 *2465:X spine_bot_iw[10] 46.0738 
*END

*D_NET *52 0.00277445
*CONN
*P spine_bot_iw[11] O
*I *2422:X O *D sky130_fd_sc_hd__buf_8
*CAP
1 spine_bot_iw[11] 0.0012112
2 *2422:X 0.0012112
3 spine_bot_iw[11] spine_bot_iw[12] 0.00011645
4 spine_bot_iw[11] spine_bot_iw[13] 4.86178e-05
5 spine_bot_iw[11] spine_bot_iw[4] 0
6 spine_bot_iw[11] spine_bot_iw[6] 3.30411e-05
7 spine_bot_iw[11] spine_bot_iw[7] 3.69686e-05
8 spine_bot_iw[11] spine_bot_iw[8] 4.33393e-06
9 spine_bot_iw[11] *173:124 0
10 spine_bot_iw[10] spine_bot_iw[11] 0.000112648
11 *2437:A spine_bot_iw[11] 0
*RES
1 *2422:X spine_bot_iw[11] 26.0256 
*END

*D_NET *53 0.0023253
*CONN
*P spine_bot_iw[12] O
*I *2424:X O *D sky130_fd_sc_hd__buf_8
*CAP
1 spine_bot_iw[12] 0.000888527
2 *2424:X 0.000888527
3 spine_bot_iw[12] spine_bot_iw[13] 0.000135257
4 spine_bot_iw[12] spine_bot_iw[15] 0
5 spine_bot_iw[12] *2535:CLK 0
6 spine_bot_iw[12] *163:10 0.000146066
7 spine_bot_iw[12] *173:148 0
8 spine_bot_iw[10] spine_bot_iw[12] 5.43555e-05
9 spine_bot_iw[11] spine_bot_iw[12] 0.00011645
10 *2437:A spine_bot_iw[12] 9.61175e-05
*RES
1 *2424:X spine_bot_iw[12] 29.721 
*END

*D_NET *54 0.00146006
*CONN
*P spine_bot_iw[13] O
*I *2426:X O *D sky130_fd_sc_hd__buf_8
*CAP
1 spine_bot_iw[13] 0.000478925
2 *2426:X 0.000478925
3 spine_bot_iw[13] spine_bot_iw[14] 5.56523e-05
4 spine_bot_iw[13] spine_bot_iw[15] 3.44364e-05
5 spine_bot_iw[13] *2426:A 0
6 spine_bot_iw[13] *2428:A 0.000228244
7 spine_bot_iw[11] spine_bot_iw[13] 4.86178e-05
8 spine_bot_iw[12] spine_bot_iw[13] 0.000135257
9 *2437:A spine_bot_iw[13] 0
*RES
1 *2426:X spine_bot_iw[13] 24.8196 
*END

*D_NET *55 0.000631331
*CONN
*P spine_bot_iw[14] O
*I *2428:X O *D sky130_fd_sc_hd__buf_8
*CAP
1 spine_bot_iw[14] 0.00025848
2 *2428:X 0.00025848
3 spine_bot_iw[14] spine_bot_iw[15] 5.87187e-05
4 spine_bot_iw[13] spine_bot_iw[14] 5.56523e-05
*RES
1 *2428:X spine_bot_iw[14] 22.9254 
*END

*D_NET *56 0.001344
*CONN
*P spine_bot_iw[15] O
*I *2430:X O *D sky130_fd_sc_hd__buf_8
*CAP
1 spine_bot_iw[15] 0.000510048
2 *2430:X 0.000510048
3 spine_bot_iw[15] spine_bot_iw[16] 5.42046e-05
4 spine_bot_iw[15] spine_bot_iw[17] 5.07942e-05
5 spine_bot_iw[12] spine_bot_iw[15] 0
6 spine_bot_iw[13] spine_bot_iw[15] 3.44364e-05
7 spine_bot_iw[14] spine_bot_iw[15] 5.87187e-05
8 *2437:A spine_bot_iw[15] 0.000125747
*RES
1 *2430:X spine_bot_iw[15] 22.6922 
*END

*D_NET *57 0.000530504
*CONN
*P spine_bot_iw[16] O
*I *2432:X O *D sky130_fd_sc_hd__buf_8
*CAP
1 spine_bot_iw[16] 0.00020879
2 *2432:X 0.00020879
3 spine_bot_iw[16] spine_bot_iw[17] 5.87187e-05
4 spine_bot_iw[16] *2432:A 0
5 spine_bot_iw[15] spine_bot_iw[16] 5.42046e-05
*RES
1 *2432:X spine_bot_iw[16] 23.3163 
*END

*D_NET *58 0.00113132
*CONN
*P spine_bot_iw[17] O
*I *2434:X O *D sky130_fd_sc_hd__buf_8
*CAP
1 spine_bot_iw[17] 0.000326539
2 *2434:X 0.000326539
3 spine_bot_iw[17] spine_bot_iw[18] 0.000287974
4 spine_bot_iw[17] *2430:A 6.27272e-06
5 spine_bot_iw[15] spine_bot_iw[17] 5.07942e-05
6 spine_bot_iw[16] spine_bot_iw[17] 5.87187e-05
7 *2437:A spine_bot_iw[17] 7.44857e-05
*RES
1 *2434:X spine_bot_iw[17] 22.4039 
*END

*D_NET *59 0.00122479
*CONN
*P spine_bot_iw[18] O
*I *2436:X O *D sky130_fd_sc_hd__buf_8
*CAP
1 spine_bot_iw[18] 0.000284858
2 *2436:X 0.000284858
3 spine_bot_iw[18] spine_bot_iw[19] 0.000141512
4 spine_bot_iw[18] spine_bot_iw[20] 7.53442e-05
5 spine_bot_iw[18] spine_bot_iw[21] 0
6 spine_bot_iw[18] *2434:A 0.000140263
7 spine_bot_iw[17] spine_bot_iw[18] 0.000287974
8 *2437:A spine_bot_iw[18] 9.97767e-06
*RES
1 *2436:X spine_bot_iw[18] 23.5614 
*END

*D_NET *60 0.000808447
*CONN
*P spine_bot_iw[19] O
*I *2438:X O *D sky130_fd_sc_hd__buf_8
*CAP
1 spine_bot_iw[19] 0.000244894
2 *2438:X 0.000244894
3 spine_bot_iw[19] spine_bot_iw[20] 0.000177146
4 spine_bot_iw[19] *2432:A 0
5 spine_bot_iw[18] spine_bot_iw[19] 0.000141512
*RES
1 *2438:X spine_bot_iw[19] 23.9395 
*END

*D_NET *61 0.000479436
*CONN
*P spine_bot_iw[1] O
*I *2420:X O *D sky130_fd_sc_hd__buf_8
*CAP
1 spine_bot_iw[1] 0.000183256
2 *2420:X 0.000183256
3 spine_bot_iw[1] spine_bot_iw[2] 5.87187e-05
4 spine_bot_iw[0] spine_bot_iw[1] 5.42046e-05
*RES
1 *2420:X spine_bot_iw[1] 22.7092 
*END

*D_NET *62 0.00244372
*CONN
*P spine_bot_iw[20] O
*I *2440:X O *D sky130_fd_sc_hd__buf_8
*CAP
1 spine_bot_iw[20] 0.000696832
2 *2440:X 0.000696832
3 spine_bot_iw[20] spine_bot_iw[21] 0.000262911
4 spine_bot_iw[20] spine_bot_iw[22] 6.27272e-06
5 spine_bot_iw[20] *2432:A 0
6 spine_bot_iw[20] *2434:A 0
7 spine_bot_iw[20] *2436:A 0
8 spine_bot_iw[20] *2438:A 0
9 spine_bot_iw[20] *173:182 0.000108035
10 spine_bot_iw[18] spine_bot_iw[20] 7.53442e-05
11 spine_bot_iw[19] spine_bot_iw[20] 0.000177146
12 *2433:A spine_bot_iw[20] 2.21972e-05
13 *2437:A spine_bot_iw[20] 4.88185e-05
14 *14:34 spine_bot_iw[20] 0.000349336
*RES
1 *2440:X spine_bot_iw[20] 32.0117 
*END

*D_NET *63 0.00286306
*CONN
*P spine_bot_iw[21] O
*I *2442:X O *D sky130_fd_sc_hd__buf_8
*CAP
1 spine_bot_iw[21] 0.000866395
2 *2442:X 0.000866395
3 spine_bot_iw[21] spine_bot_iw[22] 0.000731856
4 spine_bot_iw[21] spine_bot_iw[24] 0
5 spine_bot_iw[21] *2444:A 8.51263e-05
6 spine_bot_iw[21] *2446:A 0
7 spine_bot_iw[18] spine_bot_iw[21] 0
8 spine_bot_iw[20] spine_bot_iw[21] 0.000262911
9 *22:40 spine_bot_iw[21] 5.03772e-05
*RES
1 *2442:X spine_bot_iw[21] 26.9421 
*END

*D_NET *64 0.00284193
*CONN
*P spine_bot_iw[22] O
*I *2444:X O *D sky130_fd_sc_hd__buf_8
*CAP
1 spine_bot_iw[22] 0.000813793
2 *2444:X 0.000813793
3 spine_bot_iw[22] spine_bot_iw[23] 0.000404858
4 spine_bot_iw[22] spine_bot_iw[24] 7.13583e-05
5 spine_bot_iw[22] *2444:A 0
6 spine_bot_iw[20] spine_bot_iw[22] 6.27272e-06
7 spine_bot_iw[21] spine_bot_iw[22] 0.000731856
8 *14:34 spine_bot_iw[22] 0
*RES
1 *2444:X spine_bot_iw[22] 27.0944 
*END

*D_NET *65 0.00256489
*CONN
*P spine_bot_iw[23] O
*I *2446:X O *D sky130_fd_sc_hd__buf_8
*CAP
1 spine_bot_iw[23] 0.000802141
2 *2446:X 0.000802141
3 spine_bot_iw[23] spine_bot_iw[24] 0.000520602
4 spine_bot_iw[23] spine_bot_iw[25] 0
5 spine_bot_iw[23] *2444:A 0
6 spine_bot_iw[23] *2446:A 3.51442e-05
7 spine_bot_iw[23] *2539:RESET_B 0
8 spine_bot_iw[22] spine_bot_iw[23] 0.000404858
*RES
1 *2446:X spine_bot_iw[23] 32.4882 
*END

*D_NET *66 0.00279753
*CONN
*P spine_bot_iw[24] O
*I *2448:X O *D sky130_fd_sc_hd__buf_8
*CAP
1 spine_bot_iw[24] 0.000754963
2 *2448:X 0.000754963
3 spine_bot_iw[24] spine_bot_iw[25] 0.000695648
4 spine_bot_iw[24] *2446:A 0
5 spine_bot_iw[24] *2539:RESET_B 0
6 spine_bot_iw[21] spine_bot_iw[24] 0
7 spine_bot_iw[22] spine_bot_iw[24] 7.13583e-05
8 spine_bot_iw[23] spine_bot_iw[24] 0.000520602
*RES
1 *2448:X spine_bot_iw[24] 25.9957 
*END

*D_NET *67 0.00257968
*CONN
*P spine_bot_iw[25] O
*I *2450:X O *D sky130_fd_sc_hd__buf_8
*CAP
1 spine_bot_iw[25] 0.000652434
2 *2450:X 0.000652434
3 spine_bot_iw[25] spine_bot_iw[26] 0.000287974
4 spine_bot_iw[25] *2446:A 0
5 spine_bot_iw[25] *2539:RESET_B 0.000291185
6 spine_bot_iw[23] spine_bot_iw[25] 0
7 spine_bot_iw[24] spine_bot_iw[25] 0.000695648
*RES
1 *2450:X spine_bot_iw[25] 26.8743 
*END

*D_NET *68 0.00120517
*CONN
*P spine_bot_iw[26] O
*I *2452:X O *D sky130_fd_sc_hd__buf_8
*CAP
1 spine_bot_iw[26] 0.00031461
2 *2452:X 0.00031461
3 spine_bot_iw[26] spine_bot_iw[27] 0.000287974
4 spine_bot_iw[25] spine_bot_iw[26] 0.000287974
*RES
1 *2452:X spine_bot_iw[26] 24.2407 
*END

*D_NET *69 0.00148261
*CONN
*P spine_bot_iw[27] O
*I *2454:X O *D sky130_fd_sc_hd__buf_8
*CAP
1 spine_bot_iw[27] 0.000398908
2 *2454:X 0.000398908
3 spine_bot_iw[27] spine_bot_iw[28] 0.000287974
4 spine_bot_iw[27] *2452:A 0.000108848
5 spine_bot_iw[26] spine_bot_iw[27] 0.000287974
*RES
1 *2454:X spine_bot_iw[27] 26.3657 
*END

*D_NET *70 0.00118986
*CONN
*P spine_bot_iw[28] O
*I *2456:X O *D sky130_fd_sc_hd__buf_8
*CAP
1 spine_bot_iw[28] 0.000394618
2 *2456:X 0.000394618
3 spine_bot_iw[28] spine_bot_iw[29] 0.000112648
4 spine_bot_iw[27] spine_bot_iw[28] 0.000287974
*RES
1 *2456:X spine_bot_iw[28] 23.7776 
*END

*D_NET *71 0.000705158
*CONN
*P spine_bot_iw[29] O
*I *2467:LO O *D sky130_fd_sc_hd__conb_1
*CAP
1 spine_bot_iw[29] 0.000296255
2 *2467:LO 0.000296255
3 spine_bot_iw[29] *2550:DIODE 0
4 spine_bot_iw[28] spine_bot_iw[29] 0.000112648
*RES
1 *2467:LO spine_bot_iw[29] 23.833 
*END

*D_NET *72 0.00113578
*CONN
*P spine_bot_iw[2] O
*I *2457:X O *D sky130_fd_sc_hd__buf_8
*CAP
1 spine_bot_iw[2] 0.000361355
2 *2457:X 0.000361355
3 spine_bot_iw[2] spine_bot_iw[3] 0.000291777
4 spine_bot_iw[2] *2457:A 0
5 spine_bot_iw[0] spine_bot_iw[2] 1.26208e-05
6 spine_bot_iw[1] spine_bot_iw[2] 5.87187e-05
7 *2437:A spine_bot_iw[2] 4.99511e-05
*RES
1 *2457:X spine_bot_iw[2] 22.2598 
*END

*D_NET *73 0.00180911
*CONN
*P spine_bot_iw[3] O
*I *2458:X O *D sky130_fd_sc_hd__buf_8
*CAP
1 spine_bot_iw[3] 0.000591628
2 *2458:X 0.000591628
3 spine_bot_iw[3] spine_bot_iw[4] 0.000170379
4 spine_bot_iw[3] spine_bot_iw[5] 8.43056e-05
5 spine_bot_iw[3] *192:19 5.45041e-05
6 spine_bot_iw[2] spine_bot_iw[3] 0.000291777
7 *14:23 spine_bot_iw[3] 2.48858e-05
*RES
1 *2458:X spine_bot_iw[3] 24.0196 
*END

*D_NET *74 0.00133192
*CONN
*P spine_bot_iw[4] O
*I *2459:X O *D sky130_fd_sc_hd__buf_8
*CAP
1 spine_bot_iw[4] 0.000394438
2 *2459:X 0.000394438
3 spine_bot_iw[4] spine_bot_iw[5] 0.00017418
4 spine_bot_iw[4] spine_bot_iw[6] 0
5 spine_bot_iw[4] *2457:A 0.000128146
6 spine_bot_iw[4] *2459:A 0
7 spine_bot_iw[4] *192:19 7.03408e-05
8 spine_bot_iw[11] spine_bot_iw[4] 0
9 spine_bot_iw[3] spine_bot_iw[4] 0.000170379
10 *2437:A spine_bot_iw[4] 0
*RES
1 *2459:X spine_bot_iw[4] 26.2431 
*END

*D_NET *75 0.003086
*CONN
*P spine_bot_iw[5] O
*I *2460:X O *D sky130_fd_sc_hd__buf_8
*CAP
1 spine_bot_iw[5] 0.00115124
2 *2460:X 0.00115124
3 spine_bot_iw[5] spine_bot_iw[6] 0.000364026
4 spine_bot_iw[5] spine_bot_iw[9] 0
5 spine_bot_iw[5] *193:12 0
6 spine_bot_iw[5] *194:19 0.000161013
7 spine_bot_iw[3] spine_bot_iw[5] 8.43056e-05
8 spine_bot_iw[4] spine_bot_iw[5] 0.00017418
*RES
1 *2460:X spine_bot_iw[5] 25.9957 
*END

*D_NET *76 0.00386033
*CONN
*P spine_bot_iw[6] O
*I *2461:X O *D sky130_fd_sc_hd__buf_8
*CAP
1 spine_bot_iw[6] 0.00101826
2 *2461:X 0.00101826
3 spine_bot_iw[6] spine_bot_iw[7] 0.000222567
4 spine_bot_iw[6] spine_bot_iw[8] 5.16399e-06
5 spine_bot_iw[6] *2422:A 0.000313473
6 spine_bot_iw[6] *2459:A 0.000375869
7 spine_bot_iw[6] *2460:A 6.32633e-05
8 spine_bot_iw[6] *2534:RESET_B 0
9 spine_bot_iw[6] *164:91 0
10 spine_bot_iw[6] *164:93 0
11 spine_bot_iw[6] *173:124 0
12 spine_bot_iw[6] *194:19 0.000313532
13 spine_bot_iw[6] *195:17 0.0001198
14 spine_bot_iw[11] spine_bot_iw[6] 3.30411e-05
15 spine_bot_iw[4] spine_bot_iw[6] 0
16 spine_bot_iw[5] spine_bot_iw[6] 0.000364026
17 *2437:A spine_bot_iw[6] 1.30861e-05
*RES
1 *2461:X spine_bot_iw[6] 41.4377 
*END

*D_NET *77 0.00490394
*CONN
*P spine_bot_iw[7] O
*I *2462:X O *D sky130_fd_sc_hd__buf_8
*CAP
1 spine_bot_iw[7] 0.000745999
2 *2462:X 0.000745999
3 spine_bot_iw[7] spine_bot_iw[8] 0.0017578
4 spine_bot_iw[7] *2426:A 0
5 spine_bot_iw[7] *164:89 9.35367e-05
6 spine_bot_iw[7] *164:91 7.64438e-05
7 spine_bot_iw[7] *173:118 0.000763691
8 spine_bot_iw[7] *173:120 0.000321475
9 spine_bot_iw[7] *173:124 0.000139464
10 spine_bot_iw[11] spine_bot_iw[7] 3.69686e-05
11 spine_bot_iw[6] spine_bot_iw[7] 0.000222567
12 *2437:A spine_bot_iw[7] 0
*RES
1 *2462:X spine_bot_iw[7] 42.0824 
*END

*D_NET *78 0.00466802
*CONN
*P spine_bot_iw[8] O
*I *2463:X O *D sky130_fd_sc_hd__buf_8
*CAP
1 spine_bot_iw[8] 0.00102754
2 *2463:X 0.00102754
3 spine_bot_iw[8] spine_bot_iw[9] 0.000769557
4 spine_bot_iw[8] *2426:A 0
5 spine_bot_iw[8] *2535:CLK 0
6 spine_bot_iw[8] *164:89 7.1724e-05
7 spine_bot_iw[8] *196:19 0
8 spine_bot_iw[11] spine_bot_iw[8] 4.33393e-06
9 spine_bot_iw[6] spine_bot_iw[8] 5.16399e-06
10 spine_bot_iw[7] spine_bot_iw[8] 0.0017578
11 *2437:A spine_bot_iw[8] 4.37712e-06
*RES
1 *2463:X spine_bot_iw[8] 46.2228 
*END

*D_NET *79 0.00473372
*CONN
*P spine_bot_iw[9] O
*I *2464:X O *D sky130_fd_sc_hd__buf_8
*CAP
1 spine_bot_iw[9] 0.00149495
2 *2464:X 0.00149495
3 spine_bot_iw[9] *2424:A 0
4 spine_bot_iw[9] *2462:A 0
5 spine_bot_iw[9] *2510:A 0
6 spine_bot_iw[9] *2535:CLK 0
7 spine_bot_iw[9] *2536:CLK 0.000395427
8 spine_bot_iw[9] *196:19 0
9 spine_bot_iw[10] spine_bot_iw[9] 0.000528987
10 spine_bot_iw[5] spine_bot_iw[9] 0
11 spine_bot_iw[8] spine_bot_iw[9] 0.000769557
12 *14:23 spine_bot_iw[9] 4.98422e-05
*RES
1 *2464:X spine_bot_iw[9] 43.9488 
*END

*D_NET *80 0.000855308
*CONN
*P spine_bot_ow[0] I
*I *2550:DIODE I *D sky130_fd_sc_hd__diode_2
*CAP
1 spine_bot_ow[0] 0.000264305
2 *2550:DIODE 0.000264305
3 *2550:DIODE spine_bot_ow[1] 0.000110194
4 spine_bot_iw[29] *2550:DIODE 0
5 *4:13 *2550:DIODE 0.000216504
*RES
1 spine_bot_ow[0] *2550:DIODE 23.833 
*END

*D_NET *81 0.00944038
*CONN
*P spine_bot_ow[10] I
*I *2642:A I *D sky130_fd_sc_hd__inv_2
*I *2551:DIODE I *D sky130_fd_sc_hd__diode_2
*I *2392:Z O *D sky130_fd_sc_hd__ebufn_1
*CAP
1 spine_bot_ow[10] 0.000401941
2 *2642:A 0.000566477
3 *2551:DIODE 0.000128144
4 *2392:Z 0
5 *81:22 0.00365939
6 *81:6 0.00336671
7 spine_bot_ow[10] spine_bot_ow[11] 0.000397182
8 spine_bot_ow[10] spine_bot_ow[7] 0
9 spine_bot_ow[10] spine_bot_ow[9] 0.000256341
10 spine_bot_ow[10] *2680:A 2.28544e-05
11 *2642:A *2597:DIODE 2.89114e-05
12 *2642:A *2643:A 0.000138015
13 *2642:A *2653:A0 4.57445e-05
14 *2642:A *2678:A 9.90367e-05
15 *2642:A *2679:A 5.52238e-05
16 *2642:A *2689:A0 5.06983e-05
17 *2642:A *160:10 0
18 *2642:A *270:14 2.27416e-05
19 *81:22 *2643:A 3.69697e-05
20 *81:22 *2673:A 0
21 *81:22 *2680:A 0.000163999
22 *81:22 *2690:A1 0
23 *81:22 *82:24 0
24 *81:22 *103:22 0
25 *81:22 *160:10 0
*RES
1 *2392:Z *81:6 13.8 
2 *81:6 spine_bot_ow[10] 9.11742 
3 *81:6 *81:22 54.4643 
4 *81:22 *2551:DIODE 15.1571 
5 *81:22 *2642:A 25.6929 
*END

*D_NET *82 0.0112114
*CONN
*P spine_bot_ow[11] I
*I *2643:A I *D sky130_fd_sc_hd__inv_2
*I *2552:DIODE I *D sky130_fd_sc_hd__diode_2
*I *2370:Z O *D sky130_fd_sc_hd__ebufn_1
*CAP
1 spine_bot_ow[11] 0.000321731
2 *2643:A 0.000285205
3 *2552:DIODE 0.000404073
4 *2370:Z 3.92359e-05
5 *82:24 0.00141479
6 *82:8 0.00165689
7 spine_bot_ow[11] spine_bot_ow[12] 0.000402092
8 spine_bot_ow[11] *310:14 0
9 *2643:A *2679:A 9.31149e-05
10 *2643:A *103:22 2.34204e-05
11 *82:8 *167:94 5.52238e-05
12 *82:24 spine_bot_ow[12] 5.7903e-06
13 *82:24 *2673:A 0.000140311
14 *82:24 *2690:A1 0.000142327
15 *82:24 *83:29 0.00399887
16 *82:24 *160:10 0.00165616
17 *82:24 *310:14 0
18 spine_bot_ow[10] spine_bot_ow[11] 0.000397182
19 *2642:A *2643:A 0.000138015
20 *81:22 *2643:A 3.69697e-05
21 *81:22 *82:24 0
*RES
1 *2370:Z *82:8 14.3357 
2 *82:8 spine_bot_ow[11] 8.97329 
3 *82:8 *82:24 52.6429 
4 *82:24 *2552:DIODE 15.5679 
5 *2552:DIODE *2643:A 33.4393 
*END

*D_NET *83 0.0102501
*CONN
*P spine_bot_ow[12] I
*I *2644:A I *D sky130_fd_sc_hd__inv_2
*I *2553:DIODE I *D sky130_fd_sc_hd__diode_2
*I *2371:Z O *D sky130_fd_sc_hd__ebufn_1
*CAP
1 spine_bot_ow[12] 0.000333563
2 *2644:A 0.000332557
3 *2553:DIODE 0
4 *2371:Z 0.000333563
5 *83:29 0.00220976
6 *83:27 0.0018772
7 spine_bot_ow[12] spine_bot_ow[13] 0.00039718
8 spine_bot_ow[12] spine_bot_ow[7] 0
9 spine_bot_ow[12] *310:14 0
10 *2644:A *2645:A 0
11 *2644:A *84:22 0
12 *2644:A *160:10 0.000179933
13 *83:29 *2690:A0 0.000125731
14 *83:29 *84:22 0
15 *83:29 *160:10 5.38886e-05
16 *83:29 *310:14 0
17 spine_bot_ow[11] spine_bot_ow[12] 0.000402092
18 *82:24 spine_bot_ow[12] 5.7903e-06
19 *82:24 *83:29 0.00399887
*RES
1 *2371:Z spine_bot_ow[12] 22.6828 
2 *2371:Z *83:27 13.8 
3 *83:27 *83:29 52.0357 
4 *83:29 *2553:DIODE 13.8 
5 *83:29 *2644:A 21.05 
*END

*D_NET *84 0.0089087
*CONN
*P spine_bot_ow[13] I
*I *2645:A I *D sky130_fd_sc_hd__inv_2
*I *2554:DIODE I *D sky130_fd_sc_hd__diode_2
*I *2372:Z O *D sky130_fd_sc_hd__ebufn_1
*CAP
1 spine_bot_ow[13] 0.000328467
2 *2645:A 0.000435728
3 *2554:DIODE 8.56257e-05
4 *2372:Z 0
5 *84:22 0.00355652
6 *84:6 0.00336363
7 spine_bot_ow[13] spine_bot_ow[14] 0.00039718
8 spine_bot_ow[13] *85:22 0
9 spine_bot_ow[13] *310:14 2.06827e-05
10 *2645:A *239:12 0
11 *84:22 *2646:A 0
12 *84:22 *2690:A0 0
13 *84:22 *85:22 0
14 *84:22 *239:12 0
15 *84:22 *310:14 0.000247674
16 spine_bot_ow[12] spine_bot_ow[13] 0.00039718
17 *2644:A *2645:A 0
18 *2644:A *84:22 0
19 *24:66 *84:22 7.6021e-05
20 *83:29 *84:22 0
*RES
1 *2372:Z *84:6 13.8 
2 *84:6 spine_bot_ow[13] 9.04536 
3 *84:6 *84:22 56.8929 
4 *84:22 *2554:DIODE 14.7464 
5 *84:22 *2645:A 21.5679 
*END

*D_NET *85 0.00834899
*CONN
*P spine_bot_ow[14] I
*I *2646:A I *D sky130_fd_sc_hd__inv_2
*I *2555:DIODE I *D sky130_fd_sc_hd__diode_2
*I *2373:Z O *D sky130_fd_sc_hd__ebufn_1
*CAP
1 spine_bot_ow[14] 0.000542346
2 *2646:A 0.000198308
3 *2555:DIODE 2.91597e-05
4 *2373:Z 0
5 *85:22 0.00306893
6 *85:6 0.00338381
7 spine_bot_ow[14] spine_bot_ow[15] 0.000267799
8 spine_bot_ow[14] spine_bot_ow[17] 0
9 spine_bot_ow[14] *88:22 0
10 *2555:DIODE *239:12 1.92905e-05
11 *2646:A *2610:A 0
12 *2646:A *239:12 0.000322453
13 *85:22 *2603:A 0.000119708
14 *85:22 *88:22 0
15 *85:22 *89:22 0
16 spine_bot_ow[13] spine_bot_ow[14] 0.00039718
17 spine_bot_ow[13] *85:22 0
18 *24:66 *85:22 0
19 *84:22 *2646:A 0
20 *84:22 *85:22 0
*RES
1 *2373:Z *85:6 13.8 
2 *85:6 spine_bot_ow[14] 9.33362 
3 *85:6 *85:22 52.6429 
4 *85:22 *2555:DIODE 14.3357 
5 *85:22 *2646:A 18.7821 
*END

*D_NET *86 0.0116376
*CONN
*P spine_bot_ow[15] I
*I *2647:A I *D sky130_fd_sc_hd__inv_2
*I *2556:DIODE I *D sky130_fd_sc_hd__diode_2
*I *2374:Z O *D sky130_fd_sc_hd__ebufn_1
*CAP
1 spine_bot_ow[15] 0.000841756
2 *2647:A 0.000336299
3 *2556:DIODE 0.000222698
4 *2374:Z 0
5 *86:22 0.00330724
6 *86:6 0.00359
7 spine_bot_ow[15] spine_bot_ow[16] 0.00106233
8 spine_bot_ow[15] spine_bot_ow[17] 2.01882e-05
9 spine_bot_ow[15] spine_bot_ow[19] 6.63171e-06
10 spine_bot_ow[15] *2374:TE_B 0
11 spine_bot_ow[15] *87:22 0
12 spine_bot_ow[15] *167:36 0
13 *2556:DIODE *2557:DIODE 0.000142856
14 *2556:DIODE *2560:DIODE 9.71197e-05
15 *2647:A *2611:A 0
16 *2647:A *2613:A 0
17 *2647:A *2648:A 0
18 *2647:A *308:12 5.52238e-05
19 *86:22 spine_bot_ow[20] 8.50795e-06
20 *86:22 *2378:TE_B 0
21 *86:22 *2613:A 0
22 *86:22 *87:22 0
23 *86:22 *90:24 0
24 *86:22 *92:22 0.00167898
25 *86:22 *93:22 0
26 *86:22 *167:36 0
27 spine_bot_ow[14] spine_bot_ow[15] 0.000267799
28 *4:13 spine_bot_ow[15] 0
*RES
1 *2374:Z *86:6 13.8 
2 *86:6 spine_bot_ow[15] 10.0261 
3 *86:6 *86:22 62.6607 
4 *86:22 *2556:DIODE 18.0321 
5 *86:22 *2647:A 19.925 
*END

*D_NET *87 0.0123462
*CONN
*P spine_bot_ow[16] I
*I *2648:A I *D sky130_fd_sc_hd__inv_2
*I *2557:DIODE I *D sky130_fd_sc_hd__diode_2
*I *2375:Z O *D sky130_fd_sc_hd__ebufn_1
*CAP
1 spine_bot_ow[16] 0.000830104
2 *2648:A 0.000302081
3 *2557:DIODE 0.000368672
4 *2375:Z 0
5 *87:22 0.00253337
6 *87:6 0.00269272
7 spine_bot_ow[16] spine_bot_ow[17] 0.000223277
8 spine_bot_ow[16] spine_bot_ow[21] 0
9 spine_bot_ow[16] spine_bot_ow[22] 0.000152556
10 spine_bot_ow[16] spine_bot_ow[23] 0
11 *2557:DIODE *2613:A 5.06983e-05
12 *2648:A *2613:A 2.97756e-05
13 *2648:A *2614:A 2.78729e-05
14 *2648:A *2615:A 0
15 *2648:A *2623:A0 0
16 *2648:A *2658:A0 0
17 *2648:A *2664:A 0.000206564
18 *2648:A *308:12 9.90367e-05
19 *87:22 spine_bot_ow[21] 8.50795e-06
20 *87:22 spine_bot_ow[22] 8.45293e-05
21 *87:22 *2613:A 0.000145678
22 *87:22 *2614:A 0.00014983
23 *87:22 *93:22 0.00160502
24 *87:22 *94:22 0.00163068
25 spine_bot_ow[15] spine_bot_ow[16] 0.00106233
26 spine_bot_ow[15] *87:22 0
27 *2556:DIODE *2557:DIODE 0.000142856
28 *2647:A *2648:A 0
29 *4:13 spine_bot_ow[16] 0
30 *86:22 *87:22 0
*RES
1 *2375:Z *87:6 13.8 
2 *87:6 spine_bot_ow[16] 10.815 
3 *87:6 *87:22 62.3571 
4 *87:22 *2557:DIODE 18.4429 
5 *87:22 *2648:A 20.6393 
*END

*D_NET *88 0.00803127
*CONN
*P spine_bot_ow[17] I
*I *2603:A I *D sky130_fd_sc_hd__buf_2
*I *2558:DIODE I *D sky130_fd_sc_hd__diode_2
*I *2376:Z O *D sky130_fd_sc_hd__ebufn_1
*CAP
1 spine_bot_ow[17] 0.000400842
2 *2603:A 0.000259385
3 *2558:DIODE 0.000345011
4 *2376:Z 0
5 *88:22 0.00197068
6 *88:6 0.00228589
7 spine_bot_ow[17] spine_bot_ow[18] 0.000389573
8 spine_bot_ow[17] *166:75 0
9 *2603:A *2610:A 0
10 *2603:A *89:22 0
11 *88:22 spine_bot_ow[18] 9.60337e-06
12 *88:22 *89:22 0.00200712
13 *88:22 *166:75 0
14 spine_bot_ow[14] spine_bot_ow[17] 0
15 spine_bot_ow[14] *88:22 0
16 spine_bot_ow[15] spine_bot_ow[17] 2.01882e-05
17 spine_bot_ow[16] spine_bot_ow[17] 0.000223277
18 *85:22 *2603:A 0.000119708
19 *85:22 *88:22 0
*RES
1 *2376:Z *88:6 13.8 
2 *88:6 spine_bot_ow[17] 9.04536 
3 *88:6 *88:22 47.1786 
4 *88:22 *2558:DIODE 14.7464 
5 *2558:DIODE *2603:A 32.6179 
*END

*D_NET *89 0.00845072
*CONN
*P spine_bot_ow[18] I
*I *2610:A I *D sky130_fd_sc_hd__buf_2
*I *2559:DIODE I *D sky130_fd_sc_hd__diode_2
*I *2377:Z O *D sky130_fd_sc_hd__ebufn_1
*CAP
1 spine_bot_ow[18] 0.000365608
2 *2610:A 0.000330436
3 *2559:DIODE 0
4 *2377:Z 0
5 *89:22 0.00244608
6 *89:6 0.00248125
7 spine_bot_ow[18] spine_bot_ow[19] 0.000383236
8 spine_bot_ow[18] spine_bot_ow[20] 1.14751e-05
9 spine_bot_ow[18] *166:75 8.50795e-06
10 *2610:A *90:24 0
11 *89:22 *90:24 0
12 *89:22 *166:75 1.78353e-05
13 spine_bot_ow[17] spine_bot_ow[18] 0.000389573
14 *2603:A *2610:A 0
15 *2603:A *89:22 0
16 *2646:A *2610:A 0
17 *85:22 *89:22 0
18 *88:22 spine_bot_ow[18] 9.60337e-06
19 *88:22 *89:22 0.00200712
*RES
1 *2377:Z *89:6 13.8 
2 *89:6 spine_bot_ow[18] 8.88279 
3 *89:6 *89:22 51.7321 
4 *89:22 *2559:DIODE 13.8 
5 *89:22 *2610:A 19.7286 
*END

*D_NET *90 0.00989264
*CONN
*P spine_bot_ow[19] I
*I *2611:A I *D sky130_fd_sc_hd__buf_2
*I *2560:DIODE I *D sky130_fd_sc_hd__diode_2
*I *2378:Z O *D sky130_fd_sc_hd__ebufn_1
*CAP
1 spine_bot_ow[19] 0.000336339
2 *2611:A 0.000381136
3 *2560:DIODE 7.03212e-05
4 *2378:Z 4.3645e-05
5 *90:24 0.00291404
6 *90:8 0.00284257
7 spine_bot_ow[19] spine_bot_ow[20] 0.000388462
8 spine_bot_ow[19] *2378:TE_B 4.58764e-05
9 spine_bot_ow[19] *167:61 2.11419e-05
10 spine_bot_ow[19] *167:191 2.26824e-05
11 *2611:A *2612:A 0.000134748
12 *2611:A *2656:S 0
13 *2611:A *308:12 0.000225609
14 *90:8 *2378:TE_B 3.69047e-06
15 *90:8 *167:23 8.57166e-06
16 *90:8 *167:32 4.85049e-06
17 *90:24 *2378:TE_B 0.000117189
18 *90:24 *2612:A 3.69697e-05
19 *90:24 *92:22 0.0016589
20 *90:24 *167:191 0.000148903
21 spine_bot_ow[15] spine_bot_ow[19] 6.63171e-06
22 spine_bot_ow[18] spine_bot_ow[19] 0.000383236
23 *2556:DIODE *2560:DIODE 9.71197e-05
24 *2610:A *90:24 0
25 *2647:A *2611:A 0
26 *86:22 *90:24 0
27 *89:22 *90:24 0
*RES
1 *2378:Z *90:8 14.3357 
2 *90:8 spine_bot_ow[19] 8.97329 
3 *90:8 *90:24 59.3214 
4 *90:24 *2560:DIODE 14.7464 
5 *90:24 *2611:A 21.8714 
*END

*D_NET *91 0.0104724
*CONN
*P spine_bot_ow[1] I
*I *2667:A I *D sky130_fd_sc_hd__inv_2
*I *2561:DIODE I *D sky130_fd_sc_hd__diode_2
*I *2369:Z O *D sky130_fd_sc_hd__ebufn_1
*CAP
1 spine_bot_ow[1] 0.000685862
2 *2667:A 0.0002101
3 *2561:DIODE 0.000338244
4 *2369:Z 0
5 *91:22 0.00151525
6 *91:6 0.00207297
7 spine_bot_ow[1] spine_bot_ow[2] 0.000430911
8 spine_bot_ow[1] spine_bot_ow[3] 7.09785e-05
9 spine_bot_ow[1] *99:24 4.46186e-06
10 spine_bot_ow[1] *100:10 0
11 *2667:A *238:12 5.5782e-05
12 *91:22 spine_bot_ow[2] 2.22043e-05
13 *91:22 *98:24 0.000169673
14 *91:22 *98:26 0.0023289
15 *91:22 *99:24 0.00245688
16 *2550:DIODE spine_bot_ow[1] 0.000110194
*RES
1 *2369:Z *91:6 13.8 
2 *91:6 spine_bot_ow[1] 10.0504 
3 *91:6 *91:22 56.8929 
4 *91:22 *2561:DIODE 15.1571 
5 *2561:DIODE *2667:A 30.9036 
*END

*D_NET *92 0.00902382
*CONN
*P spine_bot_ow[20] I
*I *2612:A I *D sky130_fd_sc_hd__buf_2
*I *2562:DIODE I *D sky130_fd_sc_hd__diode_2
*I *2379:Z O *D sky130_fd_sc_hd__ebufn_1
*CAP
1 spine_bot_ow[20] 0.000331659
2 *2612:A 0.000304222
3 *2562:DIODE 0.000389117
4 *2379:Z 0
5 *92:22 0.0016705
6 *92:6 0.00191727
7 spine_bot_ow[20] spine_bot_ow[21] 0.000447946
8 spine_bot_ow[20] *2378:TE_B 9.60337e-06
9 *2612:A *2620:A0 0
10 *2612:A *2656:S 5.80706e-06
11 *92:22 *2378:TE_B 2.96504e-05
12 spine_bot_ow[18] spine_bot_ow[20] 1.14751e-05
13 spine_bot_ow[19] spine_bot_ow[20] 0.000388462
14 *2611:A *2612:A 0.000134748
15 *86:22 spine_bot_ow[20] 8.50795e-06
16 *86:22 *92:22 0.00167898
17 *90:24 *2612:A 3.69697e-05
18 *90:24 *92:22 0.0016589
*RES
1 *2379:Z *92:6 13.8 
2 *92:6 spine_bot_ow[20] 8.88279 
3 *92:6 *92:22 55.9821 
4 *92:22 *2562:DIODE 14.7464 
5 *2562:DIODE *2612:A 33.0286 
*END

*D_NET *93 0.00880892
*CONN
*P spine_bot_ow[21] I
*I *2613:A I *D sky130_fd_sc_hd__buf_2
*I *2563:DIODE I *D sky130_fd_sc_hd__diode_2
*I *2381:Z O *D sky130_fd_sc_hd__ebufn_1
*CAP
1 spine_bot_ow[21] 0.000503283
2 *2613:A 0.000348164
3 *2563:DIODE 5.05962e-05
4 *2381:Z 0
5 *93:22 0.00263407
6 *93:6 0.00273859
7 spine_bot_ow[21] spine_bot_ow[22] 0.00024659
8 spine_bot_ow[21] spine_bot_ow[24] 0
9 spine_bot_ow[16] spine_bot_ow[21] 0
10 spine_bot_ow[20] spine_bot_ow[21] 0.000447946
11 *2557:DIODE *2613:A 5.06983e-05
12 *2647:A *2613:A 0
13 *2648:A *2613:A 2.97756e-05
14 *86:22 *2613:A 0
15 *86:22 *93:22 0
16 *87:22 spine_bot_ow[21] 8.50795e-06
17 *87:22 *2613:A 0.000145678
18 *87:22 *93:22 0.00160502
*RES
1 *2381:Z *93:6 13.8 
2 *93:6 spine_bot_ow[21] 9.09899 
3 *93:6 *93:22 53.5536 
4 *93:22 *2563:DIODE 14.3357 
5 *93:22 *2613:A 21.4607 
*END

*D_NET *94 0.00918691
*CONN
*P spine_bot_ow[22] I
*I *2614:A I *D sky130_fd_sc_hd__buf_2
*I *2564:DIODE I *D sky130_fd_sc_hd__diode_2
*I *2382:Z O *D sky130_fd_sc_hd__ebufn_1
*CAP
1 spine_bot_ow[22] 0.000522354
2 *2614:A 0.000368178
3 *2564:DIODE 5.05962e-05
4 *2382:Z 0
5 *94:22 0.0026981
6 *94:6 0.00280168
7 spine_bot_ow[22] spine_bot_ow[23] 0.000316688
8 spine_bot_ow[22] spine_bot_ow[24] 6.16663e-06
9 spine_bot_ow[22] *2382:TE_B 0
10 spine_bot_ow[22] *95:22 0
11 *2614:A *2566:DIODE 2.89016e-05
12 *2614:A *2615:A 0
13 *2614:A *2623:A0 0.000102197
14 *2614:A *95:22 0
15 *94:22 *2382:TE_B 0
16 *94:22 *95:22 0
17 spine_bot_ow[16] spine_bot_ow[22] 0.000152556
18 spine_bot_ow[21] spine_bot_ow[22] 0.00024659
19 *2648:A *2614:A 2.78729e-05
20 *4:13 spine_bot_ow[22] 0
21 *87:22 spine_bot_ow[22] 8.45293e-05
22 *87:22 *2614:A 0.00014983
23 *87:22 *94:22 0.00163068
*RES
1 *2382:Z *94:6 13.8 
2 *94:6 spine_bot_ow[22] 11.8367 
3 *94:6 *94:22 54.4643 
4 *94:22 *2564:DIODE 14.3357 
5 *94:22 *2614:A 22.2821 
*END

*D_NET *95 0.0090455
*CONN
*P spine_bot_ow[23] I
*I *2615:A I *D sky130_fd_sc_hd__buf_2
*I *2565:DIODE I *D sky130_fd_sc_hd__diode_2
*I *2383:Z O *D sky130_fd_sc_hd__ebufn_1
*CAP
1 spine_bot_ow[23] 0.000402797
2 *2615:A 0.000375627
3 *2565:DIODE 5.05799e-05
4 *2383:Z 0
5 *95:22 0.0036647
6 *95:6 0.00364129
7 spine_bot_ow[23] spine_bot_ow[24] 0.000223277
8 spine_bot_ow[23] *2567:DIODE 2.22043e-05
9 *2615:A *2616:A 0
10 *2615:A *2623:A0 0.000128154
11 *2615:A *96:8 0
12 *95:22 spine_bot_ow[24] 2.06178e-05
13 *95:22 *2382:TE_B 0.000199556
14 *95:22 *96:8 0
15 spine_bot_ow[16] spine_bot_ow[23] 0
16 spine_bot_ow[22] spine_bot_ow[23] 0.000316688
17 spine_bot_ow[22] *95:22 0
18 *2614:A *2615:A 0
19 *2614:A *95:22 0
20 *2648:A *2615:A 0
21 *4:13 spine_bot_ow[23] 0
22 *94:22 *95:22 0
*RES
1 *2383:Z *95:6 13.8 
2 *95:6 spine_bot_ow[23] 9.98078 
3 *95:6 *95:22 59.3214 
4 *95:22 *2565:DIODE 14.3357 
5 *95:22 *2615:A 20.7464 
*END

*D_NET *96 0.0096284
*CONN
*P spine_bot_ow[24] I
*I *2616:A I *D sky130_fd_sc_hd__buf_2
*I *2566:DIODE I *D sky130_fd_sc_hd__diode_2
*I *2384:Z O *D sky130_fd_sc_hd__ebufn_1
*CAP
1 spine_bot_ow[24] 0.000753636
2 *2616:A 0.000198812
3 *2566:DIODE 0.000109599
4 *2384:Z 0.000753636
5 *96:8 0.00262226
6 *96:6 0.00231385
7 spine_bot_ow[24] *2567:DIODE 0.000106393
8 *2566:DIODE *250:12 1.40415e-05
9 *2616:A *2625:A0 5.17614e-05
10 spine_bot_ow[21] spine_bot_ow[24] 0
11 spine_bot_ow[22] spine_bot_ow[24] 6.16663e-06
12 spine_bot_ow[23] spine_bot_ow[24] 0.000223277
13 *2614:A *2566:DIODE 2.89016e-05
14 *2615:A *2616:A 0
15 *2615:A *96:8 0
16 *23:15 *2616:A 0.000114829
17 *23:15 *96:8 0.00231062
18 *95:22 spine_bot_ow[24] 2.06178e-05
19 *95:22 *96:8 0
*RES
1 *2384:Z *96:6 13.8 
2 *96:6 *96:8 57.1964 
3 *96:8 *2566:DIODE 15.5679 
4 *96:8 *2616:A 18.0143 
5 *2384:Z spine_bot_ow[24] 22.899 
*END

*D_NET *97 0.000728254
*CONN
*P spine_bot_ow[25] I
*I *2567:DIODE I *D sky130_fd_sc_hd__diode_2
*CAP
1 spine_bot_ow[25] 0.000292442
2 *2567:DIODE 0.000292442
3 spine_bot_ow[23] *2567:DIODE 2.22043e-05
4 spine_bot_ow[24] *2567:DIODE 0.000106393
5 *4:13 *2567:DIODE 1.47728e-05
*RES
1 spine_bot_ow[25] *2567:DIODE 23.833 
*END

*D_NET *98 0.0117474
*CONN
*P spine_bot_ow[2] I
*I *2674:A I *D sky130_fd_sc_hd__inv_2
*I *2572:DIODE I *D sky130_fd_sc_hd__diode_2
*I *2380:Z O *D sky130_fd_sc_hd__ebufn_1
*CAP
1 spine_bot_ow[2] 0.000402065
2 *2674:A 0.000219723
3 *2572:DIODE 8.29077e-05
4 *2380:Z 0
5 *98:26 0.00197929
6 *98:24 0.00180423
7 *98:6 0.000529634
8 spine_bot_ow[2] spine_bot_ow[3] 0.000395625
9 spine_bot_ow[2] spine_bot_ow[7] 0
10 *2572:DIODE *238:16 9.71197e-05
11 *2572:DIODE *238:22 1.24368e-05
12 *2674:A *2651:A0 0
13 *2674:A *2675:A 0
14 *2674:A *2683:A1 7.83587e-05
15 *2674:A *2684:A0 6.05161e-06
16 *2674:A *2685:A0 0
17 *2674:A *238:213 6.19181e-05
18 *2674:A *238:224 0.000113877
19 *2674:A *238:228 5.52302e-05
20 *2674:A *238:248 1.08359e-05
21 *98:26 *2675:A 0
22 *98:26 *2683:A0 0.000322453
23 *98:26 *2690:S 0
24 *98:26 *99:24 0
25 *98:26 *162:12 0.000568254
26 *98:26 *238:12 0.00204485
27 *98:26 *238:213 1.08359e-05
28 spine_bot_ow[1] spine_bot_ow[2] 0.000430911
29 *2366:A *98:24 0
30 *91:22 spine_bot_ow[2] 2.22043e-05
31 *91:22 *98:24 0.000169673
32 *91:22 *98:26 0.0023289
*RES
1 *2380:Z *98:6 13.8 
2 *98:6 spine_bot_ow[2] 9.09899 
3 *98:6 *98:24 2.8125 
4 *98:24 *98:26 62.3304 
5 *98:26 *2572:DIODE 15.1571 
6 *98:26 *2674:A 19.0143 
*END

*D_NET *99 0.0104854
*CONN
*P spine_bot_ow[3] I
*I *2675:A I *D sky130_fd_sc_hd__inv_2
*I *2583:DIODE I *D sky130_fd_sc_hd__diode_2
*I *2385:Z O *D sky130_fd_sc_hd__ebufn_1
*CAP
1 spine_bot_ow[3] 0.000328949
2 *2675:A 0.000288825
3 *2583:DIODE 0
4 *2385:Z 0.000141743
5 *99:24 0.00263978
6 *99:8 0.00282165
7 spine_bot_ow[3] spine_bot_ow[4] 0.000281719
8 spine_bot_ow[3] spine_bot_ow[5] 2.40959e-05
9 spine_bot_ow[3] *166:16 2.39923e-05
10 *2675:A *2635:A 0
11 *2675:A *2651:A0 0.000511908
12 *2675:A *2676:A 0
13 *2675:A *2683:A0 0.000121948
14 *2675:A *2683:A1 2.79092e-05
15 *2675:A *2685:A0 1.92905e-05
16 *2675:A *2686:S 9.90431e-05
17 *99:8 *2369:TE_B 2.89114e-05
18 *99:8 *166:20 1.21289e-05
19 *99:8 *167:144 2.89016e-05
20 *99:24 *2635:A 0
21 *99:24 *2676:A 0
22 *99:24 *100:10 0
23 *99:24 *166:10 7.83366e-05
24 *99:24 *166:12 3.17163e-05
25 *99:24 *166:16 4.66203e-05
26 spine_bot_ow[1] spine_bot_ow[3] 7.09785e-05
27 spine_bot_ow[1] *99:24 4.46186e-06
28 spine_bot_ow[2] spine_bot_ow[3] 0.000395625
29 *2674:A *2675:A 0
30 *91:22 *99:24 0.00245688
31 *98:26 *2675:A 0
32 *98:26 *99:24 0
*RES
1 *2385:Z *99:8 15.5679 
2 *99:8 spine_bot_ow[3] 9.11742 
3 *99:8 *99:24 59.3214 
4 *99:24 *2583:DIODE 13.8 
5 *99:24 *2675:A 22.7643 
*END

*D_NET *100 0.00855121
*CONN
*P spine_bot_ow[4] I
*I *2676:A I *D sky130_fd_sc_hd__inv_2
*I *2594:DIODE I *D sky130_fd_sc_hd__diode_2
*I *2386:Z O *D sky130_fd_sc_hd__ebufn_1
*CAP
1 spine_bot_ow[4] 0.000228977
2 *2676:A 0.000279335
3 *2594:DIODE 0
4 *2386:Z 0
5 *100:10 0.00350646
6 *100:8 0.00331126
7 *100:4 0.000313103
8 spine_bot_ow[4] spine_bot_ow[5] 0.000286233
9 spine_bot_ow[4] *166:170 0
10 *2676:A *2635:A 0.000153047
11 *2676:A *2651:A0 0
12 *2676:A *2677:A 0
13 *2676:A *101:22 0
14 *2676:A *270:14 0
15 *100:10 spine_bot_ow[5] 0
16 *100:10 *101:22 0
17 *100:10 *166:10 5.0725e-05
18 *100:10 *166:12 9.11365e-06
19 *100:10 *166:170 4.57445e-05
20 *100:10 *167:152 8.54929e-05
21 spine_bot_ow[1] *100:10 0
22 spine_bot_ow[3] spine_bot_ow[4] 0.000281719
23 *2675:A *2676:A 0
24 *4:13 spine_bot_ow[4] 0
25 *99:24 *2676:A 0
26 *99:24 *100:10 0
*RES
1 *2386:Z *100:4 9.3 
2 *100:4 *100:8 5.44643 
3 *100:8 *100:10 59.3214 
4 *100:10 *2594:DIODE 13.8 
5 *100:10 *2676:A 19.3893 
6 *100:4 spine_bot_ow[4] 13.1192 
*END

*D_NET *101 0.00967486
*CONN
*P spine_bot_ow[5] I
*I *2677:A I *D sky130_fd_sc_hd__inv_2
*I *2597:DIODE I *D sky130_fd_sc_hd__diode_2
*I *2387:Z O *D sky130_fd_sc_hd__ebufn_1
*CAP
1 spine_bot_ow[5] 0.000557109
2 *2677:A 0.000145893
3 *2597:DIODE 4.16506e-05
4 *2387:Z 0
5 *101:22 0.00259451
6 *101:6 0.00296408
7 spine_bot_ow[5] spine_bot_ow[6] 0.000317341
8 spine_bot_ow[5] spine_bot_ow[7] 2.41255e-05
9 spine_bot_ow[5] *102:24 2.62984e-05
10 *2677:A *2653:A0 0
11 *2677:A *2678:A 3.67356e-05
12 *2677:A *2688:A0 0
13 *2677:A *270:14 6.97972e-05
14 *101:22 *2678:A 0.000108848
15 *101:22 *102:24 0.00244923
16 spine_bot_ow[3] spine_bot_ow[5] 2.40959e-05
17 spine_bot_ow[4] spine_bot_ow[5] 0.000286233
18 *2642:A *2597:DIODE 2.89114e-05
19 *2676:A *2677:A 0
20 *2676:A *101:22 0
21 *100:10 spine_bot_ow[5] 0
22 *100:10 *101:22 0
*RES
1 *2387:Z *101:6 13.8 
2 *101:6 spine_bot_ow[5] 9.40569 
3 *101:6 *101:22 59.3214 
4 *101:22 *2597:DIODE 14.3357 
5 *101:22 *2677:A 16.9607 
*END

*D_NET *102 0.00959477
*CONN
*P spine_bot_ow[6] I
*I *2678:A I *D sky130_fd_sc_hd__inv_2
*I *2598:DIODE I *D sky130_fd_sc_hd__diode_2
*I *2388:Z O *D sky130_fd_sc_hd__ebufn_1
*CAP
1 spine_bot_ow[6] 0.000376701
2 *2678:A 0.000180506
3 *2598:DIODE 0
4 *2388:Z 3.88803e-05
5 *102:24 0.00181163
6 *102:8 0.0020467
7 spine_bot_ow[6] spine_bot_ow[7] 0.000281008
8 spine_bot_ow[6] spine_bot_ow[9] 1.85455e-05
9 spine_bot_ow[6] *166:170 0
10 *2678:A *2679:A 0
11 *2678:A *105:22 7.79781e-06
12 *102:8 *2386:A 3.08664e-05
13 *102:24 spine_bot_ow[9] 8.68984e-05
14 *102:24 *105:22 0.00167774
15 *102:24 *166:170 0
16 spine_bot_ow[5] spine_bot_ow[6] 0.000317341
17 spine_bot_ow[5] *102:24 2.62984e-05
18 *2642:A *2678:A 9.90367e-05
19 *2677:A *2678:A 3.67356e-05
20 *4:13 spine_bot_ow[6] 0
21 *101:22 *2678:A 0.000108848
22 *101:22 *102:24 0.00244923
*RES
1 *2388:Z *102:8 14.3357 
2 *102:8 spine_bot_ow[6] 8.83542 
3 *102:8 *102:24 59.3214 
4 *102:24 *2598:DIODE 13.8 
5 *102:24 *2678:A 18.2107 
*END

*D_NET *103 0.0109031
*CONN
*P spine_bot_ow[7] I
*I *2679:A I *D sky130_fd_sc_hd__inv_2
*I *2599:DIODE I *D sky130_fd_sc_hd__diode_2
*I *2389:Z O *D sky130_fd_sc_hd__ebufn_1
*CAP
1 spine_bot_ow[7] 0.000616362
2 *2679:A 0.000222379
3 *2599:DIODE 0
4 *2389:Z 0
5 *103:22 0.00213978
6 *103:6 0.00253376
7 spine_bot_ow[7] spine_bot_ow[8] 0.000223277
8 spine_bot_ow[7] spine_bot_ow[9] 2.55114e-05
9 spine_bot_ow[7] *2680:A 8.50795e-06
10 *2679:A *2653:A0 8.06427e-05
11 *2679:A *105:22 0.000229443
12 *103:22 spine_bot_ow[9] 9.54798e-06
13 *103:22 *2680:A 8.22896e-05
14 *103:22 *105:22 0.00425469
15 spine_bot_ow[10] spine_bot_ow[7] 0
16 spine_bot_ow[12] spine_bot_ow[7] 0
17 spine_bot_ow[2] spine_bot_ow[7] 0
18 spine_bot_ow[5] spine_bot_ow[7] 2.41255e-05
19 spine_bot_ow[6] spine_bot_ow[7] 0.000281008
20 *2642:A *2679:A 5.52238e-05
21 *2643:A *2679:A 9.31149e-05
22 *2643:A *103:22 2.34204e-05
23 *2678:A *2679:A 0
24 *81:22 *103:22 0
*RES
1 *2389:Z *103:6 13.8 
2 *103:6 spine_bot_ow[7] 9.17105 
3 *103:6 *103:22 53.5536 
4 *103:22 *2599:DIODE 13.8 
5 *103:22 *2679:A 20.2286 
*END

*D_NET *104 0.00287614
*CONN
*P spine_bot_ow[8] I
*I *2600:DIODE I *D sky130_fd_sc_hd__diode_2
*I *2680:A I *D sky130_fd_sc_hd__inv_2
*I *2390:Z O *D sky130_fd_sc_hd__ebufn_1
*CAP
1 spine_bot_ow[8] 0.000250316
2 *2600:DIODE 0
3 *2680:A 0.000503223
4 *2390:Z 6.87211e-05
5 *104:8 0.000753539
6 *104:6 6.87211e-05
7 spine_bot_ow[8] spine_bot_ow[9] 0.000406783
8 *2680:A spine_bot_ow[9] 0
9 *2680:A *167:107 0
10 *104:6 *2390:TE_B 5.25675e-05
11 spine_bot_ow[10] *2680:A 2.28544e-05
12 spine_bot_ow[7] spine_bot_ow[8] 0.000223277
13 spine_bot_ow[7] *2680:A 8.50795e-06
14 *2453:A *2680:A 0.000271345
15 *4:13 spine_bot_ow[8] 0
16 *81:22 *2680:A 0.000163999
17 *103:22 *2680:A 8.22896e-05
*RES
1 *2390:Z *104:6 10.2464 
2 *104:6 *104:8 4.5 
3 *104:8 spine_bot_ow[8] 8.24672 
4 *104:8 *2680:A 24.4071 
5 *104:6 *2600:DIODE 9.3 
*END

*D_NET *105 0.0118549
*CONN
*P spine_bot_ow[9] I
*I *2635:A I *D sky130_fd_sc_hd__inv_2
*I *2601:DIODE I *D sky130_fd_sc_hd__diode_2
*I *2391:Z O *D sky130_fd_sc_hd__ebufn_1
*CAP
1 spine_bot_ow[9] 0.000507048
2 *2635:A 0.00042092
3 *2601:DIODE 0.000548944
4 *2391:Z 0
5 *105:22 0.00143633
6 *105:6 0.00181535
7 spine_bot_ow[10] spine_bot_ow[9] 0.000256341
8 spine_bot_ow[6] spine_bot_ow[9] 1.85455e-05
9 spine_bot_ow[7] spine_bot_ow[9] 2.55114e-05
10 spine_bot_ow[8] spine_bot_ow[9] 0.000406783
11 *2675:A *2635:A 0
12 *2676:A *2635:A 0.000153047
13 *2678:A *105:22 7.79781e-06
14 *2679:A *105:22 0.000229443
15 *2680:A spine_bot_ow[9] 0
16 *99:24 *2635:A 0
17 *102:24 spine_bot_ow[9] 8.68984e-05
18 *102:24 *105:22 0.00167774
19 *103:22 spine_bot_ow[9] 9.54798e-06
20 *103:22 *105:22 0.00425469
*RES
1 *2391:Z *105:6 13.8 
2 *105:6 spine_bot_ow[9] 12.6753 
3 *105:6 *105:22 56.2857 
4 *105:22 *2601:DIODE 15.5679 
5 *2601:DIODE *2635:A 33.4929 
*END

*D_NET *106 0.000466914
*CONN
*P spine_top_iw[0] O
*I *2514:LO O *D sky130_fd_sc_hd__conb_1
*CAP
1 spine_top_iw[0] 0.000188723
2 *2514:LO 0.000188723
3 spine_top_iw[0] spine_top_iw[1] 8.37907e-05
4 spine_top_iw[0] spine_top_iw[2] 5.67821e-06
5 pad_uio_out[4] spine_top_iw[0] 0
6 *2489:A spine_top_iw[0] 0
7 *22:17 spine_top_iw[0] 0
*RES
1 *2514:LO spine_top_iw[0] 21.4765 
*END

*D_NET *107 0.00226484
*CONN
*P spine_top_iw[10] O
*I *2513:X O *D sky130_fd_sc_hd__buf_8
*CAP
1 spine_top_iw[10] 0.000872607
2 *2513:X 0.000872607
3 spine_top_iw[10] spine_top_iw[11] 0.000297124
4 spine_top_iw[10] spine_top_iw[13] 0
5 spine_top_iw[10] spine_top_iw[14] 0
6 spine_top_iw[10] spine_top_iw[8] 6.03529e-05
7 spine_top_iw[10] spine_top_iw[9] 2.91419e-05
8 spine_top_iw[10] *199:21 7.8327e-05
9 *2471:A spine_top_iw[10] 0
10 *2487:A spine_top_iw[10] 5.46816e-05
*RES
1 *2513:X spine_top_iw[10] 30.4186 
*END

*D_NET *108 0.00206764
*CONN
*P spine_top_iw[11] O
*I *2470:X O *D sky130_fd_sc_hd__buf_8
*CAP
1 spine_top_iw[11] 0.000657746
2 *2470:X 0.000657746
3 spine_top_iw[11] spine_top_iw[12] 0.000159271
4 spine_top_iw[11] spine_top_iw[13] 3.07476e-05
5 spine_top_iw[11] spine_top_iw[9] 0
6 spine_top_iw[11] *2468:A 4.5534e-05
7 spine_top_iw[10] spine_top_iw[11] 0.000297124
8 *2487:A spine_top_iw[11] 0.00021947
*RES
1 *2470:X spine_top_iw[11] 23.682 
*END

*D_NET *109 0.00121981
*CONN
*P spine_top_iw[12] O
*I *2472:X O *D sky130_fd_sc_hd__buf_8
*CAP
1 spine_top_iw[12] 0.000472043
2 *2472:X 0.000472043
3 spine_top_iw[12] spine_top_iw[13] 0.00011645
4 spine_top_iw[12] spine_top_iw[9] 0
5 spine_top_iw[11] spine_top_iw[12] 0.000159271
6 *2487:A spine_top_iw[12] 0
*RES
1 *2472:X spine_top_iw[12] 24.7851 
*END

*D_NET *110 0.00302808
*CONN
*P spine_top_iw[13] O
*I *2474:X O *D sky130_fd_sc_hd__buf_8
*CAP
1 spine_top_iw[13] 0.000903409
2 *2474:X 0.000903409
3 spine_top_iw[13] spine_top_iw[14] 0.000780533
4 spine_top_iw[13] spine_top_iw[15] 0
5 spine_top_iw[13] spine_top_iw[8] 0
6 spine_top_iw[13] *256:18 0.000191859
7 spine_top_iw[10] spine_top_iw[13] 0
8 spine_top_iw[11] spine_top_iw[13] 3.07476e-05
9 spine_top_iw[12] spine_top_iw[13] 0.00011645
10 *2489:A spine_top_iw[13] 0.000101672
*RES
1 *2474:X spine_top_iw[13] 32.9168 
*END

*D_NET *111 0.00430256
*CONN
*P spine_top_iw[14] O
*I *2476:X O *D sky130_fd_sc_hd__buf_8
*CAP
1 spine_top_iw[14] 0.00104286
2 *2476:X 0.00104286
3 spine_top_iw[14] spine_top_iw[15] 0.000690369
4 spine_top_iw[14] *2476:A 0
5 spine_top_iw[14] *199:21 0.000280978
6 spine_top_iw[10] spine_top_iw[14] 0
7 spine_top_iw[13] spine_top_iw[14] 0.000780533
8 *2491:A spine_top_iw[14] 0.000464962
*RES
1 *2476:X spine_top_iw[14] 34.3825 
*END

*D_NET *112 0.00331759
*CONN
*P spine_top_iw[15] O
*I *2478:X O *D sky130_fd_sc_hd__buf_8
*CAP
1 spine_top_iw[15] 0.000979894
2 *2478:X 0.000979894
3 spine_top_iw[15] spine_top_iw[16] 0.000570088
4 spine_top_iw[15] *203:113 0
5 spine_top_iw[13] spine_top_iw[15] 0
6 spine_top_iw[14] spine_top_iw[15] 0.000690369
7 *2491:A spine_top_iw[15] 9.73405e-05
*RES
1 *2478:X spine_top_iw[15] 30.63 
*END

*D_NET *113 0.0037112
*CONN
*P spine_top_iw[16] O
*I *2480:X O *D sky130_fd_sc_hd__buf_8
*CAP
1 spine_top_iw[16] 0.00106996
2 *2480:X 0.00106996
3 spine_top_iw[16] spine_top_iw[17] 0.000299497
4 spine_top_iw[16] spine_top_iw[18] 0
5 spine_top_iw[16] spine_top_iw[19] 0
6 spine_top_iw[16] *2478:A 0.000220455
7 spine_top_iw[16] *2480:A 0
8 spine_top_iw[16] *203:113 0.000300841
9 spine_top_iw[16] *203:115 1.17968e-05
10 spine_top_iw[15] spine_top_iw[16] 0.000570088
11 *2491:A spine_top_iw[16] 7.44487e-05
12 *15:36 spine_top_iw[16] 9.41642e-05
*RES
1 *2480:X spine_top_iw[16] 34.3239 
*END

*D_NET *114 0.00225367
*CONN
*P spine_top_iw[17] O
*I *2482:X O *D sky130_fd_sc_hd__buf_8
*CAP
1 spine_top_iw[17] 0.000793591
2 *2482:X 0.000793591
3 spine_top_iw[17] spine_top_iw[18] 0.000299497
4 spine_top_iw[17] spine_top_iw[22] 2.07552e-05
5 spine_top_iw[17] *2490:A 0
6 spine_top_iw[17] *2492:A 3.454e-05
7 spine_top_iw[17] *203:113 0
8 spine_top_iw[17] *256:18 0
9 spine_top_iw[16] spine_top_iw[17] 0.000299497
10 *2489:A spine_top_iw[17] 1.21955e-05
*RES
1 *2482:X spine_top_iw[17] 30.9537 
*END

*D_NET *115 0.00270871
*CONN
*P spine_top_iw[18] O
*I *2484:X O *D sky130_fd_sc_hd__buf_8
*CAP
1 spine_top_iw[18] 0.000802728
2 *2484:X 0.000802728
3 spine_top_iw[18] spine_top_iw[19] 0.00030369
4 spine_top_iw[18] spine_top_iw[22] 2.07552e-05
5 spine_top_iw[18] *2482:A 0.000202128
6 spine_top_iw[18] *2492:A 3.15196e-05
7 spine_top_iw[18] *2494:A 0
8 spine_top_iw[16] spine_top_iw[18] 0
9 spine_top_iw[17] spine_top_iw[18] 0.000299497
10 *2491:A spine_top_iw[18] 0.000245664
*RES
1 *2484:X spine_top_iw[18] 33.0787 
*END

*D_NET *116 0.00299073
*CONN
*P spine_top_iw[19] O
*I *2486:X O *D sky130_fd_sc_hd__buf_8
*CAP
1 spine_top_iw[19] 0.00113608
2 *2486:X 0.00113608
3 spine_top_iw[19] spine_top_iw[20] 0.000141522
4 spine_top_iw[19] spine_top_iw[21] 1.76417e-05
5 spine_top_iw[19] spine_top_iw[22] 0
6 spine_top_iw[19] spine_top_iw[24] 0
7 spine_top_iw[19] *2482:A 0
8 spine_top_iw[19] *2484:A 0.00020455
9 spine_top_iw[19] *256:18 5.11642e-05
10 spine_top_iw[19] *281:12 0
11 spine_top_iw[16] spine_top_iw[19] 0
12 spine_top_iw[18] spine_top_iw[19] 0.00030369
13 *2491:A spine_top_iw[19] 0
*RES
1 *2486:X spine_top_iw[19] 33.3078 
*END

*D_NET *117 0.000751403
*CONN
*P spine_top_iw[1] O
*I *2468:X O *D sky130_fd_sc_hd__buf_8
*CAP
1 spine_top_iw[1] 0.000291911
2 *2468:X 0.000291911
3 spine_top_iw[1] spine_top_iw[2] 8.37907e-05
4 spine_top_iw[0] spine_top_iw[1] 8.37907e-05
5 *2487:A spine_top_iw[1] 0
*RES
1 *2468:X spine_top_iw[1] 22.8004 
*END

*D_NET *118 0.00218294
*CONN
*P spine_top_iw[20] O
*I *2488:X O *D sky130_fd_sc_hd__buf_8
*CAP
1 spine_top_iw[20] 0.000754782
2 *2488:X 0.000754782
3 spine_top_iw[20] spine_top_iw[21] 0.000531851
4 spine_top_iw[19] spine_top_iw[20] 0.000141522
5 *2489:A spine_top_iw[20] 0
*RES
1 *2488:X spine_top_iw[20] 23.5288 
*END

*D_NET *119 0.00308361
*CONN
*P spine_top_iw[21] O
*I *2490:X O *D sky130_fd_sc_hd__buf_8
*CAP
1 spine_top_iw[21] 0.000695601
2 *2490:X 0.000695601
3 spine_top_iw[21] spine_top_iw[22] 0.00100145
4 spine_top_iw[21] spine_top_iw[23] 4.66698e-05
5 spine_top_iw[21] *2488:A 9.47909e-05
6 spine_top_iw[21] *2490:A 0
7 spine_top_iw[21] *256:18 0
8 spine_top_iw[19] spine_top_iw[21] 1.76417e-05
9 spine_top_iw[20] spine_top_iw[21] 0.000531851
10 *2489:A spine_top_iw[21] 0
*RES
1 *2490:X spine_top_iw[21] 24.7591 
*END

*D_NET *120 0.00248502
*CONN
*P spine_top_iw[22] O
*I *2492:X O *D sky130_fd_sc_hd__buf_8
*CAP
1 spine_top_iw[22] 0.000543127
2 *2492:X 0.000543127
3 spine_top_iw[22] spine_top_iw[23] 0.000189402
4 spine_top_iw[22] spine_top_iw[24] 0.000148557
5 spine_top_iw[22] *2490:A 0
6 spine_top_iw[22] *2492:A 1.7845e-05
7 spine_top_iw[22] *256:18 0
8 spine_top_iw[17] spine_top_iw[22] 2.07552e-05
9 spine_top_iw[18] spine_top_iw[22] 2.07552e-05
10 spine_top_iw[19] spine_top_iw[22] 0
11 spine_top_iw[21] spine_top_iw[22] 0.00100145
*RES
1 *2492:X spine_top_iw[22] 23.682 
*END

*D_NET *121 0.00132576
*CONN
*P spine_top_iw[23] O
*I *2494:X O *D sky130_fd_sc_hd__buf_8
*CAP
1 spine_top_iw[23] 0.000471833
2 *2494:X 0.000471833
3 spine_top_iw[23] spine_top_iw[24] 0.000146026
4 spine_top_iw[21] spine_top_iw[23] 4.66698e-05
5 spine_top_iw[22] spine_top_iw[23] 0.000189402
*RES
1 *2494:X spine_top_iw[23] 24.3566 
*END

*D_NET *122 0.00203108
*CONN
*P spine_top_iw[24] O
*I *2496:X O *D sky130_fd_sc_hd__buf_8
*CAP
1 spine_top_iw[24] 0.000714068
2 *2496:X 0.000714068
3 spine_top_iw[24] spine_top_iw[25] 0.000304228
4 spine_top_iw[24] *2494:A 0
5 spine_top_iw[24] *2496:A 0
6 spine_top_iw[24] *256:18 0
7 spine_top_iw[19] spine_top_iw[24] 0
8 spine_top_iw[22] spine_top_iw[24] 0.000148557
9 spine_top_iw[23] spine_top_iw[24] 0.000146026
10 *2493:A spine_top_iw[24] 4.1331e-06
*RES
1 *2496:X spine_top_iw[24] 24.5328 
*END

*D_NET *123 0.00118853
*CONN
*P spine_top_iw[25] O
*I *2498:X O *D sky130_fd_sc_hd__buf_8
*CAP
1 spine_top_iw[25] 0.000365421
2 *2498:X 0.000365421
3 spine_top_iw[25] spine_top_iw[26] 0.000141522
4 spine_top_iw[25] *2498:A 1.19416e-05
5 spine_top_iw[25] *256:18 0
6 spine_top_iw[24] spine_top_iw[25] 0.000304228
*RES
1 *2498:X spine_top_iw[25] 22.601 
*END

*D_NET *124 0.000896605
*CONN
*P spine_top_iw[26] O
*I *2500:X O *D sky130_fd_sc_hd__buf_8
*CAP
1 spine_top_iw[26] 0.000301686
2 *2500:X 0.000301686
3 spine_top_iw[26] spine_top_iw[27] 0.000151713
4 spine_top_iw[26] spine_top_iw[28] 0
5 spine_top_iw[26] *2498:A 0
6 spine_top_iw[26] *2500:A 0
7 spine_top_iw[26] *2502:A 0
8 spine_top_iw[25] spine_top_iw[26] 0.000141522
*RES
1 *2500:X spine_top_iw[26] 24.3151 
*END

*D_NET *125 0.000545687
*CONN
*P spine_top_iw[27] O
*I *2502:X O *D sky130_fd_sc_hd__buf_8
*CAP
1 spine_top_iw[27] 0.000126226
2 *2502:X 0.000126226
3 spine_top_iw[27] spine_top_iw[28] 0.000141522
4 spine_top_iw[26] spine_top_iw[27] 0.000151713
*RES
1 *2502:X spine_top_iw[27] 21.5109 
*END

*D_NET *126 0.000978774
*CONN
*P spine_top_iw[28] O
*I *2504:X O *D sky130_fd_sc_hd__buf_8
*CAP
1 spine_top_iw[28] 0.000285774
2 *2504:X 0.000285774
3 spine_top_iw[28] spine_top_iw[29] 0.000112657
4 spine_top_iw[28] *2502:A 0.000153047
5 spine_top_iw[26] spine_top_iw[28] 0
6 spine_top_iw[27] spine_top_iw[28] 0.000141522
*RES
1 *2504:X spine_top_iw[28] 23.7801 
*END

*D_NET *127 0.00043718
*CONN
*P spine_top_iw[29] O
*I *2515:LO O *D sky130_fd_sc_hd__conb_1
*CAP
1 spine_top_iw[29] 0.000162261
2 *2515:LO 0.000162261
3 spine_top_iw[29] *2568:DIODE 0
4 spine_top_iw[28] spine_top_iw[29] 0.000112657
*RES
1 *2515:LO spine_top_iw[29] 21.4044 
*END

*D_NET *128 0.00262699
*CONN
*P spine_top_iw[2] O
*I *2505:X O *D sky130_fd_sc_hd__buf_8
*CAP
1 spine_top_iw[2] 0.000623013
2 *2505:X 0.000623013
3 spine_top_iw[2] spine_top_iw[3] 0.000458425
4 spine_top_iw[2] *2629:A 0.000200406
5 spine_top_iw[2] *283:24 0.000606762
6 spine_top_iw[0] spine_top_iw[2] 5.67821e-06
7 spine_top_iw[1] spine_top_iw[2] 8.37907e-05
8 *2487:A spine_top_iw[2] 2.59024e-05
*RES
1 *2505:X spine_top_iw[2] 30.9537 
*END

*D_NET *129 0.0025224
*CONN
*P spine_top_iw[3] O
*I *2506:X O *D sky130_fd_sc_hd__buf_8
*CAP
1 spine_top_iw[3] 0.000710644
2 *2506:X 0.000710644
3 spine_top_iw[3] spine_top_iw[4] 0.000321752
4 spine_top_iw[3] spine_top_iw[5] 0
5 spine_top_iw[3] spine_top_iw[6] 0
6 spine_top_iw[3] *2629:A 0.000184635
7 spine_top_iw[3] *192:19 0.000108848
8 spine_top_iw[2] spine_top_iw[3] 0.000458425
9 *2487:A spine_top_iw[3] 2.74485e-05
*RES
1 *2506:X spine_top_iw[3] 33.0787 
*END

*D_NET *130 0.00191247
*CONN
*P spine_top_iw[4] O
*I *2507:X O *D sky130_fd_sc_hd__buf_8
*CAP
1 spine_top_iw[4] 0.000547316
2 *2507:X 0.000547316
3 spine_top_iw[4] spine_top_iw[5] 0.000428695
4 spine_top_iw[4] spine_top_iw[6] 1.6229e-05
5 spine_top_iw[3] spine_top_iw[4] 0.000321752
6 *2487:A spine_top_iw[4] 5.11642e-05
*RES
1 *2507:X spine_top_iw[4] 27.7209 
*END

*D_NET *131 0.00244351
*CONN
*P spine_top_iw[5] O
*I *2508:X O *D sky130_fd_sc_hd__buf_8
*CAP
1 spine_top_iw[5] 0.000616526
2 *2508:X 0.000616526
3 spine_top_iw[5] spine_top_iw[6] 0.000552191
4 spine_top_iw[5] *2468:A 0
5 spine_top_iw[5] *194:19 0.00020212
6 spine_top_iw[3] spine_top_iw[5] 0
7 spine_top_iw[4] spine_top_iw[5] 0.000428695
8 *2487:A spine_top_iw[5] 2.74485e-05
*RES
1 *2508:X spine_top_iw[5] 30.9537 
*END

*D_NET *132 0.00400465
*CONN
*P spine_top_iw[6] O
*I *2509:X O *D sky130_fd_sc_hd__buf_8
*CAP
1 spine_top_iw[6] 0.00106458
2 *2509:X 0.00106458
3 spine_top_iw[6] spine_top_iw[7] 0.000575293
4 spine_top_iw[6] *192:19 0
5 spine_top_iw[6] *193:12 0.000196449
6 spine_top_iw[6] *194:19 0.00038395
7 spine_top_iw[3] spine_top_iw[6] 0
8 spine_top_iw[4] spine_top_iw[6] 1.6229e-05
9 spine_top_iw[5] spine_top_iw[6] 0.000552191
10 *2491:A spine_top_iw[6] 0.000151376
*RES
1 *2509:X spine_top_iw[6] 35.4151 
*END

*D_NET *133 0.00685363
*CONN
*P spine_top_iw[7] O
*I *2510:X O *D sky130_fd_sc_hd__buf_8
*CAP
1 spine_top_iw[7] 0.000677952
2 *2510:X 0.00174273
3 *133:12 0.00242068
4 spine_top_iw[7] spine_top_iw[8] 0.000865769
5 *133:12 spine_top_iw[8] 0.000571212
6 *133:12 *195:17 0
7 *133:12 *196:19 0
8 *133:12 *200:19 0
9 spine_top_iw[6] spine_top_iw[7] 0.000575293
*RES
1 *2510:X *133:12 47.8396 
2 *133:12 spine_top_iw[7] 6.71097 
*END

*D_NET *134 0.00593545
*CONN
*P spine_top_iw[8] O
*I *2511:X O *D sky130_fd_sc_hd__buf_8
*CAP
1 spine_top_iw[8] 0.00184305
2 *2511:X 0.00184305
3 spine_top_iw[8] spine_top_iw[9] 2.4637e-05
4 spine_top_iw[8] *195:17 0.000151879
5 spine_top_iw[8] *200:19 0.00057549
6 spine_top_iw[10] spine_top_iw[8] 6.03529e-05
7 spine_top_iw[13] spine_top_iw[8] 0
8 spine_top_iw[7] spine_top_iw[8] 0.000865769
9 *133:12 spine_top_iw[8] 0.000571212
*RES
1 *2511:X spine_top_iw[8] 34.6799 
*END

*D_NET *135 0.00187889
*CONN
*P spine_top_iw[9] O
*I *2512:X O *D sky130_fd_sc_hd__buf_8
*CAP
1 spine_top_iw[9] 0.000872792
2 *2512:X 0.000872792
3 spine_top_iw[9] *2468:A 0
4 spine_top_iw[9] *2472:A 7.9529e-05
5 spine_top_iw[10] spine_top_iw[9] 2.91419e-05
6 spine_top_iw[11] spine_top_iw[9] 0
7 spine_top_iw[12] spine_top_iw[9] 0
8 spine_top_iw[8] spine_top_iw[9] 2.4637e-05
9 *2471:A spine_top_iw[9] 0
*RES
1 *2512:X spine_top_iw[9] 33.6753 
*END

*D_NET *136 0.000731083
*CONN
*P spine_top_ow[0] I
*I *2568:DIODE I *D sky130_fd_sc_hd__diode_2
*CAP
1 spine_top_ow[0] 0.000292528
2 *2568:DIODE 0.000292528
3 *2568:DIODE spine_top_ow[1] 0.000146026
4 spine_top_iw[29] *2568:DIODE 0
*RES
1 spine_top_ow[0] *2568:DIODE 23.3323 
*END

*D_NET *137 0.00246712
*CONN
*P spine_top_ow[10] I
*I *2650:A I *D sky130_fd_sc_hd__inv_2
*I *2579:DIODE I *D sky130_fd_sc_hd__diode_2
*I *2418:Z O *D sky130_fd_sc_hd__ebufn_1
*CAP
1 spine_top_ow[10] 0.000425618
2 *2650:A 0.000254325
3 *2579:DIODE 0
4 *2418:Z 0.00047044
5 *137:10 0.000641734
6 spine_top_ow[10] spine_top_ow[11] 0.00013914
7 spine_top_ow[10] spine_top_ow[9] 0.000144946
8 *2650:A *2417:TE_B 4.51317e-05
9 *2650:A *2649:A 0
10 *2650:A *170:216 9.80173e-05
11 *2650:A *171:171 4.1331e-06
12 *2650:A *171:182 4.94268e-05
13 *2650:A *270:14 0.000100685
14 *137:10 *2396:A 4.01768e-05
15 *2501:A *2650:A 5.33433e-05
*RES
1 *2418:Z *137:10 17.3 
2 *137:10 *2579:DIODE 13.8 
3 *137:10 spine_top_ow[10] 8.89773 
4 *2418:Z *2650:A 32.2607 
*END

*D_NET *138 0.00178831
*CONN
*P spine_top_ow[11] I
*I *2580:DIODE I *D sky130_fd_sc_hd__diode_2
*I *2636:A I *D sky130_fd_sc_hd__inv_2
*I *2396:Z O *D sky130_fd_sc_hd__ebufn_1
*CAP
1 spine_top_ow[11] 0.000200904
2 *2580:DIODE 0
3 *2636:A 0.000195443
4 *2396:Z 0.000189618
5 *138:19 0.000340807
6 *138:8 0.000524963
7 spine_top_ow[11] spine_top_ow[12] 0.000112657
8 spine_top_ow[11] spine_top_ow[9] 4.89544e-06
9 *2636:A spine_top_ow[12] 0
10 *2636:A spine_top_ow[7] 0
11 *2636:A *2689:A1 7.73662e-05
12 *2636:A *139:8 0
13 *2636:A *159:10 0
14 *138:8 *2396:TE_B 2.51343e-06
15 *138:19 spine_top_ow[12] 0
16 spine_top_ow[10] spine_top_ow[11] 0.00013914
17 *23:55 *2636:A 0
*RES
1 *2396:Z *138:8 15.9786 
2 *138:8 *2636:A 17.2643 
3 *138:8 *138:19 2.55357 
4 *138:19 *2580:DIODE 13.8 
5 *138:19 spine_top_ow[11] 7.89265 
*END

*D_NET *139 0.00134354
*CONN
*P spine_top_ow[12] I
*I *2637:A I *D sky130_fd_sc_hd__inv_2
*I *2581:DIODE I *D sky130_fd_sc_hd__diode_2
*I *2397:Z O *D sky130_fd_sc_hd__ebufn_1
*CAP
1 spine_top_ow[12] 0.000268949
2 *2637:A 2.92035e-05
3 *2581:DIODE 0
4 *2397:Z 0.000177187
5 *139:8 0.000416933
6 spine_top_ow[12] spine_top_ow[13] 0.00011645
7 *2637:A *170:70 0.00014183
8 *139:8 *140:21 0
9 spine_top_ow[11] spine_top_ow[12] 0.000112657
10 *2501:A *2637:A 7.61932e-05
11 *2636:A spine_top_ow[12] 0
12 *2636:A *139:8 0
13 *23:55 *139:8 4.1331e-06
14 *138:19 spine_top_ow[12] 0
*RES
1 *2397:Z *139:8 16.3536 
2 *139:8 *2581:DIODE 13.8 
3 *139:8 spine_top_ow[12] 10.105 
4 *2397:Z *2637:A 19.9571 
*END

*D_NET *140 0.00206415
*CONN
*P spine_top_ow[13] I
*I *2582:DIODE I *D sky130_fd_sc_hd__diode_2
*I *2638:A I *D sky130_fd_sc_hd__inv_2
*I *2398:Z O *D sky130_fd_sc_hd__ebufn_1
*CAP
1 spine_top_ow[13] 0.000214426
2 *2582:DIODE 0
3 *2638:A 0.000238221
4 *2398:Z 6.59684e-05
5 *140:21 0.000359661
6 *140:8 0.000449424
7 spine_top_ow[13] spine_top_ow[14] 0.000233334
8 spine_top_ow[13] spine_top_ow[9] 0
9 spine_top_ow[13] *256:18 0
10 *2638:A *2619:A1 0
11 *2638:A *238:74 0.000142856
12 spine_top_ow[12] spine_top_ow[13] 0.00011645
13 *2501:A *140:8 9.90367e-05
14 *23:55 *2638:A 0.000144773
15 *139:8 *140:21 0
*RES
1 *2398:Z *140:8 14.7464 
2 *140:8 *2638:A 18.3179 
3 *140:8 *140:21 2.55357 
4 *140:21 *2582:DIODE 13.8 
5 *140:21 spine_top_ow[13] 8.03052 
*END

*D_NET *141 0.00355656
*CONN
*P spine_top_ow[14] I
*I *2639:A I *D sky130_fd_sc_hd__inv_2
*I *2584:DIODE I *D sky130_fd_sc_hd__diode_2
*I *2399:Z O *D sky130_fd_sc_hd__ebufn_1
*CAP
1 spine_top_ow[14] 0.00103939
2 *2639:A 2.3671e-05
3 *2584:DIODE 0.000392359
4 *2399:Z 0
5 *141:6 0.00140808
6 spine_top_ow[14] spine_top_ow[15] 0.000200675
7 spine_top_ow[14] spine_top_ow[19] 0
8 spine_top_ow[14] *239:12 0.000102854
9 *2584:DIODE *2655:A0 0
10 *2584:DIODE *239:12 0
11 *2584:DIODE *308:12 0.00010096
12 *2639:A *308:12 5.52302e-05
13 spine_top_ow[13] spine_top_ow[14] 0.000233334
*RES
1 *2399:Z *141:6 13.8 
2 *141:6 *2584:DIODE 19.7286 
3 *141:6 spine_top_ow[14] 10.5873 
4 *2584:DIODE *2639:A 19.1357 
*END

*D_NET *142 0.00342219
*CONN
*P spine_top_ow[15] I
*I *2585:DIODE I *D sky130_fd_sc_hd__diode_2
*I *2640:A I *D sky130_fd_sc_hd__inv_2
*I *2400:Z O *D sky130_fd_sc_hd__ebufn_1
*CAP
1 spine_top_ow[15] 0.00067913
2 *2585:DIODE 0
3 *2640:A 3.09184e-05
4 *2400:Z 0.000207585
5 *142:22 0.000855796
6 spine_top_ow[15] spine_top_ow[16] 0.000792315
7 spine_top_ow[15] spine_top_ow[17] 9.77675e-05
8 spine_top_ow[15] spine_top_ow[18] 4.73953e-05
9 spine_top_ow[15] spine_top_ow[19] 5.00695e-06
10 spine_top_ow[15] spine_top_ow[20] 1.66365e-05
11 spine_top_ow[15] *148:21 1.99644e-05
12 spine_top_ow[15] *256:18 0
13 *2640:A *170:82 0.000141132
14 *2640:A *171:80 7.49267e-05
15 *142:22 *2403:A 0.000125731
16 *142:22 *2409:TE_B 0
17 *142:22 *148:21 2.6949e-05
18 *142:22 *171:80 0.000100262
19 spine_top_ow[14] spine_top_ow[15] 0.000200675
*RES
1 *2400:Z *2640:A 19.9571 
2 *2400:Z *142:22 17.3 
3 *142:22 *2585:DIODE 13.8 
4 *142:22 spine_top_ow[15] 10.1166 
*END

*D_NET *143 0.00327629
*CONN
*P spine_top_ow[16] I
*I *2586:DIODE I *D sky130_fd_sc_hd__diode_2
*I *2641:A I *D sky130_fd_sc_hd__inv_2
*I *2401:Z O *D sky130_fd_sc_hd__ebufn_1
*CAP
1 spine_top_ow[16] 0.000745065
2 *2586:DIODE 0.000801941
3 *2641:A 0
4 *2401:Z 0.000104706
5 *143:10 0.000161583
6 spine_top_ow[16] spine_top_ow[17] 0.000171098
7 spine_top_ow[16] spine_top_ow[18] 0
8 spine_top_ow[16] *2403:TE_B 2.59355e-05
9 spine_top_ow[16] *2409:TE_B 6.05161e-06
10 spine_top_ow[16] *148:21 6.92173e-05
11 spine_top_ow[16] *309:16 0.00016389
12 *2586:DIODE *2409:TE_B 0.000142011
13 *143:10 *2409:A 1.23973e-05
14 *143:10 *2409:TE_B 0
15 *143:10 *2658:A1 8.00806e-05
16 *143:10 *2665:A 0
17 spine_top_ow[15] spine_top_ow[16] 0.000792315
*RES
1 *2401:Z *143:10 20.2464 
2 *143:10 *2641:A 9.3 
3 *143:10 *2586:DIODE 10.6571 
4 *2586:DIODE spine_top_ow[16] 29.1257 
*END

*D_NET *144 0.00178278
*CONN
*P spine_top_ow[17] I
*I *2587:DIODE I *D sky130_fd_sc_hd__diode_2
*I *2617:A I *D sky130_fd_sc_hd__buf_2
*I *2402:Z O *D sky130_fd_sc_hd__ebufn_1
*CAP
1 spine_top_ow[17] 0.000215256
2 *2587:DIODE 0
3 *2617:A 2.12584e-05
4 *2402:Z 0.00022082
5 *144:22 0.000414817
6 spine_top_ow[17] spine_top_ow[18] 0.000217723
7 *2617:A *170:76 0.000142856
8 *2617:A *171:106 0.000142856
9 *144:22 *2620:A1 3.92854e-05
10 spine_top_ow[15] spine_top_ow[17] 9.77675e-05
11 spine_top_ow[16] spine_top_ow[17] 0.000171098
12 *2501:A *144:22 9.90431e-05
*RES
1 *2402:Z *2617:A 19.9571 
2 *2402:Z *144:22 17.3 
3 *144:22 *2587:DIODE 13.8 
4 *144:22 spine_top_ow[17] 8.10259 
*END

*D_NET *145 0.001124
*CONN
*P spine_top_ow[18] I
*I *2618:A I *D sky130_fd_sc_hd__buf_2
*I *2588:DIODE I *D sky130_fd_sc_hd__diode_2
*I *2403:Z O *D sky130_fd_sc_hd__ebufn_1
*CAP
1 spine_top_ow[18] 0.000186048
2 *2618:A 5.34342e-05
3 *2588:DIODE 5.34342e-05
4 *2403:Z 7.91961e-05
5 *145:6 0.000265244
6 spine_top_ow[18] spine_top_ow[19] 0.000221527
7 spine_top_ow[15] spine_top_ow[18] 4.73953e-05
8 spine_top_ow[16] spine_top_ow[18] 0
9 spine_top_ow[17] spine_top_ow[18] 0.000217723
*RES
1 *2403:Z *145:6 10.2464 
2 *145:6 spine_top_ow[18] 12.5305 
3 *145:6 *2588:DIODE 9.3 
4 *2588:DIODE *2618:A 19.5464 
*END

*D_NET *146 0.00308464
*CONN
*P spine_top_ow[19] I
*I *2589:DIODE I *D sky130_fd_sc_hd__diode_2
*I *2604:A I *D sky130_fd_sc_hd__buf_2
*I *2404:Z O *D sky130_fd_sc_hd__ebufn_1
*CAP
1 spine_top_ow[19] 0.000396832
2 *2589:DIODE 0
3 *2604:A 9.45794e-05
4 *2404:Z 9.85121e-05
5 *146:19 0.000749231
6 *146:8 0.00054549
7 spine_top_ow[19] spine_top_ow[20] 0.000112657
8 spine_top_ow[19] spine_top_ow[21] 5.12416e-05
9 spine_top_ow[19] *309:16 1.19468e-05
10 *2604:A *305:12 0.000227539
11 *146:8 *2605:A 2.8266e-06
12 *146:8 *148:21 5.26184e-05
13 *146:8 *238:124 0
14 *146:19 *2620:A0 0
15 *146:19 *2620:A1 0
16 *146:19 *148:21 5.97931e-05
17 *146:19 *238:122 0
18 *146:19 *238:124 0
19 *146:19 *256:18 0
20 *146:19 *309:16 0.00045484
21 spine_top_ow[14] spine_top_ow[19] 0
22 spine_top_ow[15] spine_top_ow[19] 5.00695e-06
23 spine_top_ow[18] spine_top_ow[19] 0.000221527
24 *24:36 *146:19 0
*RES
1 *2404:Z *146:8 15.7464 
2 *146:8 *2604:A 15.9786 
3 *146:8 *146:19 8.01786 
4 *146:19 *2589:DIODE 13.8 
5 *146:19 spine_top_ow[19] 8.45665 
*END

*D_NET *147 0.00349144
*CONN
*P spine_top_ow[1] I
*I *2569:DIODE I *D sky130_fd_sc_hd__diode_2
*I *2681:A I *D sky130_fd_sc_hd__inv_2
*I *2395:Z O *D sky130_fd_sc_hd__ebufn_1
*CAP
1 spine_top_ow[1] 0.000796256
2 *2569:DIODE 0
3 *2681:A 0.000156427
4 *2395:Z 7.34523e-05
5 *147:19 0.00091569
6 *147:8 0.000349313
7 spine_top_ow[1] spine_top_ow[2] 0.000229542
8 spine_top_ow[1] spine_top_ow[3] 2.01754e-05
9 spine_top_ow[1] *2406:TE_B 0.000106412
10 spine_top_ow[1] *2570:DIODE 0.000503478
11 spine_top_ow[1] *256:18 0
12 *2681:A *170:10 6.26653e-05
13 *2681:A *170:19 3.42457e-05
14 *2681:A *238:224 0
15 *147:8 *258:6 2.72967e-05
16 *147:19 *2406:TE_B 2.88517e-05
17 *147:19 *170:19 4.16114e-05
18 *2568:DIODE spine_top_ow[1] 0.000146026
*RES
1 *2395:Z *147:8 14.7464 
2 *147:8 *2681:A 17.2643 
3 *147:8 *147:19 2.55357 
4 *147:19 *2569:DIODE 13.8 
5 *147:19 spine_top_ow[1] 18.7436 
*END

*D_NET *148 0.00337082
*CONN
*P spine_top_ow[20] I
*I *2590:DIODE I *D sky130_fd_sc_hd__diode_2
*I *2605:A I *D sky130_fd_sc_hd__buf_2
*I *2405:Z O *D sky130_fd_sc_hd__ebufn_1
*CAP
1 spine_top_ow[20] 0.000101015
2 *2590:DIODE 0
3 *2605:A 0.000182701
4 *2405:Z 9.72438e-05
5 *148:21 0.000726517
6 *148:8 0.000905446
7 spine_top_ow[20] spine_top_ow[21] 0.00011645
8 *2605:A *171:21 7.60306e-05
9 *2605:A *171:132 9.90431e-05
10 *2605:A *238:124 0
11 *2605:A *238:126 0
12 *2605:A *238:141 0.00010096
13 *148:8 *2404:TE_B 7.77652e-05
14 *148:21 *2403:A 7.83462e-05
15 *148:21 *2403:TE_B 0.00022117
16 *148:21 *2657:A1 4.62632e-05
17 *148:21 *170:88 0
18 *148:21 *309:16 0.000181209
19 spine_top_ow[15] spine_top_ow[20] 1.66365e-05
20 spine_top_ow[15] *148:21 1.99644e-05
21 spine_top_ow[16] *148:21 6.92173e-05
22 spine_top_ow[19] spine_top_ow[20] 0.000112657
23 *142:22 *148:21 2.6949e-05
24 *146:8 *2605:A 2.8266e-06
25 *146:8 *148:21 5.26184e-05
26 *146:19 *148:21 5.97931e-05
*RES
1 *2405:Z *148:8 15.1571 
2 *148:8 *2605:A 17.9071 
3 *148:8 *148:21 14.6964 
4 *148:21 *2590:DIODE 13.8 
5 *148:21 spine_top_ow[20] 7.60439 
*END

*D_NET *149 0.00394351
*CONN
*P spine_top_ow[21] I
*I *2591:DIODE I *D sky130_fd_sc_hd__diode_2
*I *2606:A I *D sky130_fd_sc_hd__buf_2
*I *2407:Z O *D sky130_fd_sc_hd__ebufn_1
*CAP
1 spine_top_ow[21] 0.00148306
2 *2591:DIODE 0
3 *2606:A 0.000100309
4 *2407:Z 0.000163613
5 *149:24 0.00154636
6 spine_top_ow[21] spine_top_ow[22] 0.000112657
7 spine_top_ow[21] spine_top_ow[23] 3.70587e-05
8 spine_top_ow[21] spine_top_ow[24] 0
9 spine_top_ow[21] *2407:TE_B 0
10 *2606:A *2657:A0 0.000150632
11 *2606:A *303:18 5.52302e-05
12 *2606:A *307:14 2.59355e-05
13 *149:24 *171:15 0.00010096
14 spine_top_ow[19] spine_top_ow[21] 5.12416e-05
15 spine_top_ow[20] spine_top_ow[21] 0.00011645
*RES
1 *2407:Z *2606:A 30.0821 
2 *2407:Z *149:24 10.2464 
3 *149:24 spine_top_ow[21] 15.3756 
4 *149:24 *2591:DIODE 9.3 
*END

*D_NET *150 0.00260962
*CONN
*P spine_top_ow[22] I
*I *2592:DIODE I *D sky130_fd_sc_hd__diode_2
*I *2607:A I *D sky130_fd_sc_hd__buf_2
*I *2408:Z O *D sky130_fd_sc_hd__ebufn_1
*CAP
1 spine_top_ow[22] 0.00039935
2 *2592:DIODE 0.000715207
3 *2607:A 0
4 *2408:Z 0.000201845
5 *150:8 0.000517702
6 spine_top_ow[22] spine_top_ow[23] 0.000112657
7 spine_top_ow[22] *2596:DIODE 9.59532e-06
8 *2592:DIODE spine_top_ow[23] 1.28585e-05
9 *2592:DIODE *2608:A 0.00013966
10 *2592:DIODE *2665:A 7.77751e-05
11 *150:8 *2608:A 0.000310314
12 *150:8 *2658:A0 0
13 *150:8 *2665:A 0
14 spine_top_ow[21] spine_top_ow[22] 0.000112657
*RES
1 *2408:Z *150:8 17.8714 
2 *150:8 *2607:A 13.8 
3 *150:8 *2592:DIODE 19.5321 
4 *2592:DIODE spine_top_ow[22] 22.1251 
*END

*D_NET *151 0.00309813
*CONN
*P spine_top_ow[23] I
*I *2608:A I *D sky130_fd_sc_hd__buf_2
*I *2593:DIODE I *D sky130_fd_sc_hd__diode_2
*I *2409:Z O *D sky130_fd_sc_hd__ebufn_1
*CAP
1 spine_top_ow[23] 0.000540107
2 *2608:A 0.000231884
3 *2593:DIODE 5.05023e-05
4 *2409:Z 0.000540107
5 *151:4 0.000282386
6 spine_top_ow[23] spine_top_ow[24] 0.00028173
7 spine_top_ow[23] *2596:DIODE 0
8 spine_top_ow[23] *2665:A 6.27272e-06
9 *2593:DIODE *2697:A 1.07719e-05
10 *2608:A spine_top_ow[24] 1.85361e-05
11 *2608:A *2658:A0 0
12 spine_top_ow[21] spine_top_ow[23] 3.70587e-05
13 spine_top_ow[22] spine_top_ow[23] 0.000112657
14 *2592:DIODE spine_top_ow[23] 1.28585e-05
15 *2592:DIODE *2608:A 0.00013966
16 *23:13 *2608:A 0.000372662
17 *23:15 *2608:A 0.000150618
18 *150:8 *2608:A 0.000310314
*RES
1 *2409:Z *151:4 9.3 
2 *151:4 *2593:DIODE 9.83571 
3 *151:4 *2608:A 25.1036 
4 *2409:Z spine_top_ow[23] 22.6201 
*END

*D_NET *152 0.00306374
*CONN
*P spine_top_ow[24] I
*I *2595:DIODE I *D sky130_fd_sc_hd__diode_2
*I *2609:A I *D sky130_fd_sc_hd__buf_2
*I *2410:Z O *D sky130_fd_sc_hd__ebufn_1
*CAP
1 spine_top_ow[24] 0.00112988
2 *2595:DIODE 0
3 *2609:A 2.3671e-05
4 *2410:Z 0.000167909
5 *152:20 0.00127412
6 spine_top_ow[24] *2596:DIODE 0.000112657
7 spine_top_ow[24] *2658:A0 0
8 *2609:A *2694:A 5.52302e-05
9 *152:20 *2658:A0 0
10 pad_uio_oe_n[4] spine_top_ow[24] 0
11 spine_top_ow[21] spine_top_ow[24] 0
12 spine_top_ow[23] spine_top_ow[24] 0.00028173
13 *2608:A spine_top_ow[24] 1.85361e-05
14 *23:15 spine_top_ow[24] 0
15 *23:15 *152:20 0
*RES
1 *2410:Z *2609:A 19.1357 
2 *2410:Z *152:20 16.3536 
3 *152:20 *2595:DIODE 13.8 
4 *152:20 spine_top_ow[24] 11.5251 
*END

*D_NET *153 0.000422545
*CONN
*P spine_top_ow[25] I
*I *2596:DIODE I *D sky130_fd_sc_hd__diode_2
*CAP
1 spine_top_ow[25] 0.000150146
2 *2596:DIODE 0.000150146
3 pad_uio_oe_n[4] *2596:DIODE 0
4 spine_top_ow[22] *2596:DIODE 9.59532e-06
5 spine_top_ow[23] *2596:DIODE 0
6 spine_top_ow[24] *2596:DIODE 0.000112657
*RES
1 spine_top_ow[25] *2596:DIODE 21.4044 
*END

*D_NET *154 0.00252614
*CONN
*P spine_top_ow[2] I
*I *2682:A I *D sky130_fd_sc_hd__inv_2
*I *2570:DIODE I *D sky130_fd_sc_hd__diode_2
*I *2406:Z O *D sky130_fd_sc_hd__ebufn_1
*CAP
1 spine_top_ow[2] 0.00016687
2 *2682:A 1.76939e-05
3 *2570:DIODE 0.000645378
4 *2406:Z 0
5 *154:4 0.000496202
6 spine_top_ow[2] spine_top_ow[3] 0.000233334
7 spine_top_ow[2] *256:18 0
8 *2570:DIODE *2406:TE_B 4.46186e-06
9 *2570:DIODE *2684:A1 0.000185643
10 *2570:DIODE *238:267 0
11 *2682:A *2684:A1 4.3537e-05
12 spine_top_ow[1] spine_top_ow[2] 0.000229542
13 spine_top_ow[1] *2570:DIODE 0.000503478
*RES
1 *2406:Z *154:4 9.3 
2 *154:4 *2570:DIODE 27.8179 
3 *154:4 *2682:A 9.83571 
4 *2570:DIODE spine_top_ow[2] 21.9026 
*END

*D_NET *155 0.00321404
*CONN
*P spine_top_ow[3] I
*I *2571:DIODE I *D sky130_fd_sc_hd__diode_2
*I *2668:A I *D sky130_fd_sc_hd__inv_2
*I *2411:Z O *D sky130_fd_sc_hd__ebufn_1
*CAP
1 spine_top_ow[3] 0.000582398
2 *2571:DIODE 5.16538e-05
3 *2668:A 0
4 *2411:Z 0.000153702
5 *155:12 5.16538e-05
6 *155:10 0.000736099
7 spine_top_ow[3] spine_top_ow[4] 0.000590131
8 spine_top_ow[3] *2684:A0 7.48356e-05
9 spine_top_ow[3] *238:248 0.000148196
10 spine_top_ow[3] *238:267 6.01774e-05
11 spine_top_ow[3] *255:18 4.66698e-05
12 *2571:DIODE *283:16 9.41642e-05
13 *155:10 *2684:A0 8.06331e-05
14 *155:10 *238:248 0.000151333
15 *155:10 *257:6 0.000138881
16 spine_top_ow[1] spine_top_ow[3] 2.01754e-05
17 spine_top_ow[2] spine_top_ow[3] 0.000233334
*RES
1 *2411:Z *155:10 17.1036 
2 *155:10 *155:12 4.5 
3 *155:12 *2668:A 9.3 
4 *155:12 *2571:DIODE 10.2464 
5 *155:10 spine_top_ow[3] 11.9882 
*END

*D_NET *156 0.00346244
*CONN
*P spine_top_ow[4] I
*I *2573:DIODE I *D sky130_fd_sc_hd__diode_2
*I *2669:A I *D sky130_fd_sc_hd__inv_2
*I *2412:Z O *D sky130_fd_sc_hd__ebufn_1
*CAP
1 spine_top_ow[4] 0.000474336
2 *2573:DIODE 0
3 *2669:A 0.000107739
4 *2412:Z 0.000209326
5 *156:28 0.000575922
6 spine_top_ow[4] spine_top_ow[5] 0.000590131
7 spine_top_ow[4] *2651:A0 0.000154901
8 spine_top_ow[4] *2684:A0 3.79467e-05
9 spine_top_ow[4] *255:18 2.52259e-05
10 *2669:A *2651:A0 4.57538e-05
11 *2669:A *2687:S 0.00014183
12 *2669:A *305:10 0.000128161
13 *156:28 *2651:A0 0.000200413
14 *156:28 *2684:A0 4.7024e-05
15 *156:28 *2685:A1 7.83659e-05
16 *156:28 *257:6 5.52302e-05
17 spine_top_ow[3] spine_top_ow[4] 0.000590131
*RES
1 *2412:Z *2669:A 30.6 
2 *2412:Z *156:28 16.8893 
3 *156:28 *2573:DIODE 13.8 
4 *156:28 spine_top_ow[4] 11.3089 
*END

*D_NET *157 0.00334163
*CONN
*P spine_top_ow[5] I
*I *2574:DIODE I *D sky130_fd_sc_hd__diode_2
*I *2670:A I *D sky130_fd_sc_hd__inv_2
*I *2413:Z O *D sky130_fd_sc_hd__ebufn_1
*CAP
1 spine_top_ow[5] 0.000489723
2 *2574:DIODE 0
3 *2670:A 0.000212062
4 *2413:Z 0
5 *157:23 0.000582577
6 *157:6 0.000304917
7 spine_top_ow[5] spine_top_ow[6] 0.000585302
8 spine_top_ow[5] *2651:A0 0
9 spine_top_ow[5] *255:18 2.85524e-05
10 spine_top_ow[5] *270:14 5.50995e-05
11 *2670:A *2687:S 0.00014183
12 *2670:A *270:14 9.00726e-05
13 *2670:A *305:10 0.000126238
14 *157:23 *2651:A0 0
15 *157:23 *270:14 6.76365e-05
16 *157:23 *305:10 6.74911e-05
17 spine_top_ow[4] spine_top_ow[5] 0.000590131
*RES
1 *2413:Z *157:6 13.8 
2 *157:6 *2670:A 18.9786 
3 *157:6 *157:23 2.55357 
4 *157:23 *2574:DIODE 13.8 
5 *157:23 spine_top_ow[5] 11.3089 
*END

*D_NET *158 0.00433485
*CONN
*P spine_top_ow[6] I
*I *2671:A I *D sky130_fd_sc_hd__inv_2
*I *2575:DIODE I *D sky130_fd_sc_hd__diode_2
*I *2414:Z O *D sky130_fd_sc_hd__ebufn_1
*CAP
1 spine_top_ow[6] 0.000799582
2 *2671:A 1.55834e-05
3 *2575:DIODE 0.000225768
4 *2414:Z 0
5 *158:6 0.00100977
6 spine_top_ow[6] spine_top_ow[7] 0.000247311
7 spine_top_ow[6] spine_top_ow[8] 1.0359e-05
8 spine_top_ow[6] *170:62 0.000346414
9 spine_top_ow[6] *171:171 0.000354607
10 spine_top_ow[6] *255:18 5.73086e-05
11 *2575:DIODE *2687:A0 6.17227e-05
12 *2575:DIODE *170:48 0.000173804
13 *2575:DIODE *170:62 7.83659e-05
14 *2575:DIODE *171:171 5.59013e-05
15 *2575:DIODE *270:14 0.000128918
16 *2575:DIODE *303:18 5.62995e-05
17 *2575:DIODE *306:20 5.33334e-05
18 *2671:A *303:18 5.52238e-05
19 *2671:A *306:20 1.92789e-05
20 spine_top_ow[5] spine_top_ow[6] 0.000585302
*RES
1 *2414:Z *158:6 13.8 
2 *158:6 *2575:DIODE 20.3357 
3 *158:6 spine_top_ow[6] 13.8817 
4 *2575:DIODE *2671:A 19.1357 
*END

*D_NET *159 0.002124
*CONN
*P spine_top_ow[7] I
*I *2672:A I *D sky130_fd_sc_hd__inv_2
*I *2576:DIODE I *D sky130_fd_sc_hd__diode_2
*I *2415:Z O *D sky130_fd_sc_hd__ebufn_1
*CAP
1 spine_top_ow[7] 0.000323426
2 *2672:A 0
3 *2576:DIODE 2.52229e-05
4 *2415:Z 0.000229762
5 *159:19 0.000365295
6 *159:10 0.000296853
7 spine_top_ow[7] spine_top_ow[8] 0.000250258
8 spine_top_ow[7] spine_top_ow[9] 0.000184558
9 spine_top_ow[7] *256:18 0
10 *2576:DIODE *2396:A 5.52238e-05
11 *159:10 spine_top_ow[8] 6.01873e-05
12 *159:10 *170:62 0
13 *159:10 *170:203 0
14 *159:19 *2396:A 8.59075e-05
15 spine_top_ow[6] spine_top_ow[7] 0.000247311
16 *2636:A spine_top_ow[7] 0
17 *2636:A *159:10 0
*RES
1 *2415:Z *159:10 21.7643 
2 *159:10 *2576:DIODE 9.83571 
3 *159:10 *159:19 0.946429 
4 *159:19 spine_top_ow[7] 12.8533 
5 *159:19 *2672:A 9.3 
*END

*D_NET *160 0.0114819
*CONN
*P spine_top_ow[8] I
*I *2577:DIODE I *D sky130_fd_sc_hd__diode_2
*I *2673:A I *D sky130_fd_sc_hd__inv_2
*I *2416:Z O *D sky130_fd_sc_hd__ebufn_1
*CAP
1 spine_top_ow[8] 0.000961473
2 *2577:DIODE 0.000155717
3 *2673:A 0.000159684
4 *2416:Z 0.00100508
5 *160:10 0.00246606
6 *160:8 0.00219426
7 spine_top_ow[8] spine_top_ow[9] 0.000286515
8 spine_top_ow[8] *2653:A0 0.000352002
9 spine_top_ow[8] *2689:A1 0.000552728
10 spine_top_ow[8] *170:62 0
11 spine_top_ow[8] *171:156 5.33433e-05
12 spine_top_ow[8] *238:32 0.000232076
13 spine_top_ow[8] *238:45 4.60232e-06
14 spine_top_ow[8] *256:18 0
15 *160:8 *258:6 5.33005e-05
16 *160:10 *2653:A0 0
17 *160:10 *2654:A0 0.00065399
18 *160:10 *2655:A0 0
19 spine_top_ow[6] spine_top_ow[8] 1.0359e-05
20 spine_top_ow[7] spine_top_ow[8] 0.000250258
21 *2642:A *160:10 0
22 *2644:A *160:10 0.000179933
23 *81:22 *2673:A 0
24 *81:22 *160:10 0
25 *82:24 *2673:A 0.000140311
26 *82:24 *160:10 0.00165616
27 *83:29 *160:10 5.38886e-05
28 *159:10 spine_top_ow[8] 6.01873e-05
*RES
1 *2416:Z *160:8 14.3357 
2 *160:8 *160:10 54.4643 
3 *160:10 *2673:A 17.4964 
4 *160:10 *2577:DIODE 15.5679 
5 *2416:Z spine_top_ow[8] 36.1348 
*END

*D_NET *161 0.00295448
*CONN
*P spine_top_ow[9] I
*I *2649:A I *D sky130_fd_sc_hd__inv_2
*I *2578:DIODE I *D sky130_fd_sc_hd__diode_2
*I *2417:Z O *D sky130_fd_sc_hd__ebufn_1
*CAP
1 spine_top_ow[9] 0.000578812
2 *2649:A 0.000195482
3 *2578:DIODE 0
4 *2417:Z 0.000261751
5 *161:6 0.000645082
6 spine_top_ow[9] *256:18 0
7 *2649:A *2651:A1 6.94552e-05
8 *2649:A *2652:S 3.34366e-05
9 *2649:A *270:14 0.000184798
10 *2649:A *280:12 9.21958e-05
11 *161:6 *2417:A 5.57989e-05
12 spine_top_ow[10] spine_top_ow[9] 0.000144946
13 spine_top_ow[11] spine_top_ow[9] 4.89544e-06
14 spine_top_ow[13] spine_top_ow[9] 0
15 spine_top_ow[7] spine_top_ow[9] 0.000184558
16 spine_top_ow[8] spine_top_ow[9] 0.000286515
17 *2501:A *2649:A 0.000216751
18 *2650:A *2649:A 0
*RES
1 *2417:Z *161:6 10.2464 
2 *161:6 spine_top_ow[9] 13.4674 
3 *161:6 *2578:DIODE 9.3 
4 *2417:Z *2649:A 33.3679 
*END

*D_NET *162 0.00282863
*CONN
*I *2544:B I *D sky130_fd_sc_hd__and2_2
*I *2547:B I *D sky130_fd_sc_hd__and2_2
*I *2365:X O *D sky130_fd_sc_hd__buf_2
*CAP
1 *2544:B 0.000188727
2 *2547:B 0.000321764
3 *2365:X 0.000439975
4 *162:12 0.000950465
5 *2544:B *2544:A 8.02307e-05
6 *2544:B *2545:A 2.01287e-05
7 *2547:B *2546:A 4.35141e-05
8 *2547:B *2547:A 8.30773e-05
9 *2547:B *2690:S 0.000126446
10 *2547:B *237:8 6.05161e-06
11 *2547:B *237:14 0
12 *2547:B *238:12 0
13 *162:12 *2690:S 0
14 *98:26 *162:12 0.000568254
*RES
1 *2365:X *162:12 27.9964 
2 *162:12 *2547:B 25.1571 
3 *162:12 *2544:B 12.7286 
*END

*D_NET *163 0.00540143
*CONN
*I *2534:CLK I *D sky130_fd_sc_hd__dfrbp_2
*I *2366:X O *D sky130_fd_sc_hd__buf_2
*CAP
1 *2534:CLK 1.68869e-05
2 *2366:X 0.00173602
3 *163:10 0.00175291
4 *163:10 *2435:B 3.48705e-05
5 *163:10 *2539:RESET_B 5.58375e-05
6 spine_bot_iw[12] *163:10 0.000146066
7 *5:35 *163:10 0.000233337
8 *11:27 *2534:CLK 3.13687e-05
9 *12:19 *2534:CLK 2.59355e-05
10 *14:23 *163:10 0.00013886
11 *15:17 *163:10 0.00122934
*RES
1 *2366:X *163:10 45.8536 
2 *163:10 *2534:CLK 14.3357 
*END

*D_NET *164 0.0116533
*CONN
*I *2537:RESET_B I *D sky130_fd_sc_hd__dfrbp_2
*I *2536:RESET_B I *D sky130_fd_sc_hd__dfrbp_2
*I *2535:RESET_B I *D sky130_fd_sc_hd__dfrbp_2
*I *2534:RESET_B I *D sky130_fd_sc_hd__dfrbp_2
*I *2542:RESET_B I *D sky130_fd_sc_hd__dfrbp_2
*I *2543:RESET_B I *D sky130_fd_sc_hd__dfrbp_2
*I *2538:RESET_B I *D sky130_fd_sc_hd__dfrbp_2
*I *2541:RESET_B I *D sky130_fd_sc_hd__dfrbp_2
*I *2540:RESET_B I *D sky130_fd_sc_hd__dfrbp_2
*I *2539:RESET_B I *D sky130_fd_sc_hd__dfrbp_2
*I *2367:X O *D sky130_fd_sc_hd__buf_2
*CAP
1 *2537:RESET_B 0
2 *2536:RESET_B 0
3 *2535:RESET_B 0
4 *2534:RESET_B 0.000251403
5 *2542:RESET_B 0.00019234
6 *2543:RESET_B 0
7 *2538:RESET_B 0.000598097
8 *2541:RESET_B 0.000193328
9 *2540:RESET_B 0.000707418
10 *2539:RESET_B 0.00146725
11 *2367:X 0.000930217
12 *164:93 0.000433826
13 *164:91 0.000420628
14 *164:89 0.000525251
15 *164:64 0.000397487
16 *164:52 0.000701796
17 *164:39 0.000549311
18 *2534:RESET_B *2422:A 0
19 *2534:RESET_B *173:118 0.000148031
20 *2534:RESET_B *173:120 0.00021438
21 *2534:RESET_B *224:8 8.79458e-05
22 *2538:RESET_B *2463:A 5.25998e-05
23 *2538:RESET_B *2538:CLK 0.00014285
24 *2538:RESET_B *228:8 9.84891e-05
25 *2539:RESET_B *2446:A 0
26 *2539:RESET_B *2448:A 6.97972e-05
27 *2539:RESET_B *2450:A 0.000129736
28 *2539:RESET_B *229:8 4.96254e-05
29 *2540:RESET_B *2539:CLK 0.000102197
30 *2540:RESET_B *2539:D 2.44318e-05
31 *2540:RESET_B *2540:CLK 0
32 *2540:RESET_B *229:8 0.000101445
33 *2541:RESET_B *2542:CLK 0
34 *2542:RESET_B *2464:A 0.000145594
35 *2542:RESET_B *2543:CLK 0
36 *2542:RESET_B *233:8 4.96155e-05
37 *164:39 *197:8 0.000363837
38 *164:39 *231:8 0.000150309
39 *164:52 *197:8 0.000567644
40 *164:64 *2463:A 7.80714e-06
41 *164:64 *2464:A 0.000201035
42 *164:89 *2461:A 6.74815e-05
43 *164:89 *195:17 0
44 *164:89 *196:8 6.05161e-06
45 *164:89 *196:19 2.49484e-05
46 *164:89 *228:8 0.000220865
47 *164:91 *2460:A 0
48 *164:91 *173:118 0.000237514
49 *164:91 *195:17 0
50 *164:93 *173:118 0.000386176
51 spine_bot_iw[10] *2538:RESET_B 0
52 spine_bot_iw[23] *2539:RESET_B 0
53 spine_bot_iw[24] *2539:RESET_B 0
54 spine_bot_iw[25] *2539:RESET_B 0.000291185
55 spine_bot_iw[6] *2534:RESET_B 0
56 spine_bot_iw[6] *164:91 0
57 spine_bot_iw[6] *164:93 0
58 spine_bot_iw[7] *164:89 9.35367e-05
59 spine_bot_iw[7] *164:91 7.64438e-05
60 spine_bot_iw[8] *164:89 7.1724e-05
61 *11:27 *2534:RESET_B 4.57695e-05
62 *14:34 *2540:RESET_B 0
63 *22:40 *2539:RESET_B 0
64 *163:10 *2539:RESET_B 5.58375e-05
*RES
1 *2367:X *2539:RESET_B 36.8625 
2 *2539:RESET_B *2540:RESET_B 18.9732 
3 *2540:RESET_B *164:39 4.99107 
4 *164:39 *2541:RESET_B 12.4643 
5 *164:39 *164:52 9.96429 
6 *164:52 *2538:RESET_B 11.1875 
7 *164:52 *164:64 4.98214 
8 *164:64 *2543:RESET_B 4.5 
9 *164:64 *2542:RESET_B 8.84821 
10 *2538:RESET_B *164:89 11.5982 
11 *164:89 *164:91 5.28571 
12 *164:91 *164:93 4.98214 
13 *164:93 *2534:RESET_B 10.0625 
14 *164:93 *2535:RESET_B 4.5 
15 *164:91 *2536:RESET_B 4.5 
16 *164:89 *2537:RESET_B 4.5 
*END

*D_NET *165 0.000172621
*CONN
*I *2368:A I *D sky130_fd_sc_hd__bufinv_8
*I *2360:Y O *D sky130_fd_sc_hd__inv_2
*CAP
1 *2368:A 3.618e-05
2 *2360:Y 3.618e-05
3 *2453:A *2368:A 0.000100261
*RES
1 *2360:Y *2368:A 19.5464 
*END

*D_NET *166 0.0154693
*CONN
*I *2380:TE_B I *D sky130_fd_sc_hd__ebufn_1
*I *2391:TE_B I *D sky130_fd_sc_hd__ebufn_1
*I *2389:TE_B I *D sky130_fd_sc_hd__ebufn_1
*I *2371:TE_B I *D sky130_fd_sc_hd__ebufn_1
*I *2369:TE_B I *D sky130_fd_sc_hd__ebufn_1
*I *2386:TE_B I *D sky130_fd_sc_hd__ebufn_1
*I *2388:TE_B I *D sky130_fd_sc_hd__ebufn_1
*I *2390:TE_B I *D sky130_fd_sc_hd__ebufn_1
*I *2385:TE_B I *D sky130_fd_sc_hd__ebufn_1
*I *2387:TE_B I *D sky130_fd_sc_hd__ebufn_1
*I *2392:TE_B I *D sky130_fd_sc_hd__ebufn_1
*I *2370:TE_B I *D sky130_fd_sc_hd__ebufn_1
*I *2372:TE_B I *D sky130_fd_sc_hd__ebufn_1
*I *2373:TE_B I *D sky130_fd_sc_hd__ebufn_1
*I *2376:TE_B I *D sky130_fd_sc_hd__ebufn_1
*I *2377:TE_B I *D sky130_fd_sc_hd__ebufn_1
*I *2378:TE_B I *D sky130_fd_sc_hd__ebufn_1
*I *2379:TE_B I *D sky130_fd_sc_hd__ebufn_1
*I *2381:TE_B I *D sky130_fd_sc_hd__ebufn_1
*I *2384:TE_B I *D sky130_fd_sc_hd__ebufn_1
*I *2382:TE_B I *D sky130_fd_sc_hd__ebufn_1
*I *2375:TE_B I *D sky130_fd_sc_hd__ebufn_1
*I *2383:TE_B I *D sky130_fd_sc_hd__ebufn_1
*I *2374:TE_B I *D sky130_fd_sc_hd__ebufn_1
*I *2368:Y O *D sky130_fd_sc_hd__bufinv_8
*CAP
1 *2380:TE_B 0
2 *2391:TE_B 0
3 *2389:TE_B 0
4 *2371:TE_B 0.000217561
5 *2369:TE_B 1.97275e-05
6 *2386:TE_B 0
7 *2388:TE_B 0
8 *2390:TE_B 0.000146256
9 *2385:TE_B 0
10 *2387:TE_B 0
11 *2392:TE_B 0
12 *2370:TE_B 0
13 *2372:TE_B 0
14 *2373:TE_B 0
15 *2376:TE_B 0
16 *2377:TE_B 0
17 *2378:TE_B 0.000177485
18 *2379:TE_B 0
19 *2381:TE_B 0
20 *2384:TE_B 0
21 *2382:TE_B 0.000131314
22 *2375:TE_B 2.23854e-05
23 *2383:TE_B 0.000208831
24 *2374:TE_B 9.44804e-05
25 *2368:Y 0.000165927
26 *166:206 0.00042025
27 *166:204 0.000439936
28 *166:174 0.000346615
29 *166:170 0.000325043
30 *166:83 0.000229157
31 *166:81 0.000233492
32 *166:79 0.000261267
33 *166:77 0.000328397
34 *166:75 0.00017498
35 *166:53 0.000466104
36 *166:38 0.000416362
37 *166:36 0.000236679
38 *166:34 6.9903e-05
39 *166:32 0.000126448
40 *166:30 0.000135661
41 *166:28 0.000218849
42 *166:26 0.000323493
43 *166:24 0.000319772
44 *166:22 0.000157295
45 *166:20 0.00027491
46 *166:16 0.00021519
47 *166:12 0.000321837
48 *166:10 0.000183998
49 *2371:TE_B *2371:A 0.000492333
50 *2371:TE_B *167:163 8.57023e-05
51 *2374:TE_B *167:36 3.17148e-05
52 *2374:TE_B *167:42 0.000100261
53 *2375:TE_B *167:42 0
54 *2378:TE_B *167:23 0.000229637
55 *2378:TE_B *167:36 4.46186e-06
56 *2378:TE_B *167:61 1.4396e-05
57 *2382:TE_B *2382:A 5.52302e-05
58 *2383:TE_B *2383:A 0.000147955
59 *2390:TE_B *2386:A 8.76257e-05
60 *2390:TE_B *167:116 0.000359627
61 *166:12 *167:152 2.24646e-05
62 *166:16 *167:152 0.000148911
63 *166:20 *167:144 0.000227117
64 *166:22 *167:144 5.52238e-05
65 *166:24 *167:137 0.00027093
66 *166:24 *167:144 8.76257e-05
67 *166:26 *167:130 0.000403862
68 *166:26 *167:137 8.57023e-05
69 *166:28 *167:94 0.000144791
70 *166:28 *167:101 5.49489e-05
71 *166:28 *167:130 4.27935e-05
72 *166:30 *167:83 0.000151993
73 *166:30 *167:94 4.40603e-05
74 *166:30 *310:14 0.000165757
75 *166:32 *167:74 0.000154027
76 *166:32 *167:83 4.88637e-05
77 *166:32 *310:14 0.000195455
78 *166:34 *167:65 0.000149037
79 *166:34 *167:74 4.78308e-05
80 *166:34 *310:14 0.000196867
81 *166:38 *167:36 0.00013966
82 *166:38 *167:61 9.25014e-06
83 *166:53 *2383:A 4.75955e-05
84 *166:53 *167:42 0.000258016
85 *166:75 *167:61 4.45163e-05
86 *166:75 *167:191 0.000203569
87 *166:77 *167:191 5.33005e-05
88 *166:79 *167:191 4.18895e-05
89 *166:79 *167:193 0.000270326
90 *166:81 *167:193 8.76257e-05
91 *166:81 *167:195 0.000270326
92 *166:83 *2384:A 5.71472e-05
93 *166:83 *167:195 8.46829e-05
94 *166:174 *2386:A 0.000359773
95 *166:204 *167:152 4.18895e-05
96 *166:204 *167:154 0.000273269
97 *166:204 *167:163 4.5622e-05
98 *166:206 *167:163 0.000479658
99 spine_bot_ow[15] *2374:TE_B 0
100 spine_bot_ow[17] *166:75 0
101 spine_bot_ow[18] *166:75 8.50795e-06
102 spine_bot_ow[19] *2378:TE_B 4.58764e-05
103 spine_bot_ow[20] *2378:TE_B 9.60337e-06
104 spine_bot_ow[22] *2382:TE_B 0
105 spine_bot_ow[3] *166:16 2.39923e-05
106 spine_bot_ow[4] *166:170 0
107 spine_bot_ow[6] *166:170 0
108 *2453:A *166:10 9.47028e-05
109 *5:35 *166:75 1.98839e-05
110 *5:35 *166:83 4.59075e-05
111 *5:35 *166:204 1.21258e-05
112 *86:22 *2378:TE_B 0
113 *88:22 *166:75 0
114 *89:22 *166:75 1.78353e-05
115 *90:8 *2378:TE_B 3.69047e-06
116 *90:24 *2378:TE_B 0.000117189
117 *92:22 *2378:TE_B 2.96504e-05
118 *94:22 *2382:TE_B 0
119 *95:22 *2382:TE_B 0.000199556
120 *99:8 *2369:TE_B 2.89114e-05
121 *99:8 *166:20 1.21289e-05
122 *99:24 *166:10 7.83366e-05
123 *99:24 *166:12 3.17163e-05
124 *99:24 *166:16 4.66203e-05
125 *100:10 *166:10 5.0725e-05
126 *100:10 *166:12 9.11365e-06
127 *100:10 *166:170 4.57445e-05
128 *102:24 *166:170 0
129 *104:6 *2390:TE_B 5.25675e-05
*RES
1 *2368:Y *166:10 17.5143 
2 *166:10 *166:12 0.732143 
3 *166:12 *166:16 6.44643 
4 *166:16 *166:20 3.01786 
5 *166:20 *166:22 0.535714 
6 *166:22 *166:24 3.41071 
7 *166:24 *166:26 4.64286 
8 *166:26 *166:28 3.41071 
9 *166:28 *166:30 3.41071 
10 *166:30 *166:32 3.41071 
11 *166:32 *166:34 3.41071 
12 *166:34 *166:36 4.5 
13 *166:36 *166:38 1.94643 
14 *166:38 *2374:TE_B 15.8893 
15 *166:38 *166:53 9.14286 
16 *166:53 *2383:TE_B 13.1393 
17 *166:53 *2375:TE_B 9.72857 
18 *166:36 *166:75 8 
19 *166:75 *166:77 0.535714 
20 *166:77 *166:79 3 
21 *166:79 *166:81 3.41071 
22 *166:81 *166:83 2.17857 
23 *166:83 *2382:TE_B 21.3893 
24 *166:83 *2384:TE_B 9.3 
25 *166:81 *2381:TE_B 9.3 
26 *166:79 *2379:TE_B 9.3 
27 *166:77 *2378:TE_B 23.0321 
28 *166:75 *2377:TE_B 9.3 
29 *166:34 *2376:TE_B 9.3 
30 *166:32 *2373:TE_B 9.3 
31 *166:30 *2372:TE_B 9.3 
32 *166:28 *2370:TE_B 9.3 
33 *166:26 *2392:TE_B 9.3 
34 *166:24 *2387:TE_B 9.3 
35 *166:22 *2385:TE_B 9.3 
36 *166:20 *166:170 11.25 
37 *166:170 *166:174 4.66071 
38 *166:174 *2390:TE_B 13.5321 
39 *166:174 *2388:TE_B 9.3 
40 *166:170 *2386:TE_B 9.3 
41 *166:16 *2369:TE_B 9.83571 
42 *166:12 *166:204 9.16071 
43 *166:204 *166:206 4.64286 
44 *166:206 *2371:TE_B 14.7643 
45 *166:206 *2389:TE_B 9.3 
46 *166:204 *2391:TE_B 9.3 
47 *166:10 *2380:TE_B 13.8 
*END

*D_NET *167 0.0165038
*CONN
*I *2378:A I *D sky130_fd_sc_hd__ebufn_1
*I *2377:A I *D sky130_fd_sc_hd__ebufn_1
*I *2379:A I *D sky130_fd_sc_hd__ebufn_1
*I *2381:A I *D sky130_fd_sc_hd__ebufn_1
*I *2384:A I *D sky130_fd_sc_hd__ebufn_1
*I *2369:A I *D sky130_fd_sc_hd__ebufn_1
*I *2380:A I *D sky130_fd_sc_hd__ebufn_1
*I *2389:A I *D sky130_fd_sc_hd__ebufn_1
*I *2371:A I *D sky130_fd_sc_hd__ebufn_1
*I *2391:A I *D sky130_fd_sc_hd__ebufn_1
*I *2385:A I *D sky130_fd_sc_hd__ebufn_1
*I *2387:A I *D sky130_fd_sc_hd__ebufn_1
*I *2386:A I *D sky130_fd_sc_hd__ebufn_1
*I *2388:A I *D sky130_fd_sc_hd__ebufn_1
*I *2390:A I *D sky130_fd_sc_hd__ebufn_1
*I *2392:A I *D sky130_fd_sc_hd__ebufn_1
*I *2370:A I *D sky130_fd_sc_hd__ebufn_1
*I *2372:A I *D sky130_fd_sc_hd__ebufn_1
*I *2373:A I *D sky130_fd_sc_hd__ebufn_1
*I *2374:A I *D sky130_fd_sc_hd__ebufn_1
*I *2375:A I *D sky130_fd_sc_hd__ebufn_1
*I *2383:A I *D sky130_fd_sc_hd__ebufn_1
*I *2376:A I *D sky130_fd_sc_hd__ebufn_1
*I *2382:A I *D sky130_fd_sc_hd__ebufn_1
*I *2393:LO O *D sky130_fd_sc_hd__conb_1
*CAP
1 *2378:A 0
2 *2377:A 0
3 *2379:A 0
4 *2381:A 0
5 *2384:A 6.29488e-06
6 *2369:A 0
7 *2380:A 0
8 *2389:A 0
9 *2371:A 9.90146e-05
10 *2391:A 0
11 *2385:A 0
12 *2387:A 0
13 *2386:A 0.000155834
14 *2388:A 0
15 *2390:A 3.44531e-05
16 *2392:A 0
17 *2370:A 2.37855e-05
18 *2372:A 2.37855e-05
19 *2373:A 2.37855e-05
20 *2374:A 0
21 *2375:A 0
22 *2383:A 0.00014444
23 *2376:A 0
24 *2382:A 0.00017312
25 *2393:LO 0
26 *167:195 7.08328e-05
27 *167:193 0.000120922
28 *167:191 0.000156988
29 *167:163 0.000245016
30 *167:154 0.000192527
31 *167:152 0.00013097
32 *167:144 0.000217816
33 *167:137 0.000278514
34 *167:130 0.000316223
35 *167:116 0.00031616
36 *167:107 0.00035524
37 *167:101 0.000353553
38 *167:94 0.000200939
39 *167:83 0.000367407
40 *167:74 0.000352147
41 *167:65 0.000348494
42 *167:61 0.000281057
43 *167:42 0.00028308
44 *167:36 0.00025978
45 *167:32 0.000160849
46 *167:23 0.000120814
47 *167:17 0.000218461
48 *167:4 0.000291064
49 *2382:A *310:14 0.000400919
50 *167:17 *310:14 0.000158782
51 *167:23 *310:14 0.000359076
52 *167:32 *310:14 2.12005e-05
53 *167:65 *310:14 5.74499e-06
54 *167:107 *310:14 0
55 spine_bot_ow[15] *167:36 0
56 spine_bot_ow[19] *167:61 2.11419e-05
57 spine_bot_ow[19] *167:191 2.26824e-05
58 *2371:TE_B *2371:A 0.000492333
59 *2371:TE_B *167:163 8.57023e-05
60 *2374:TE_B *167:36 3.17148e-05
61 *2374:TE_B *167:42 0.000100261
62 *2375:TE_B *167:42 0
63 *2378:TE_B *167:23 0.000229637
64 *2378:TE_B *167:36 4.46186e-06
65 *2378:TE_B *167:61 1.4396e-05
66 *2382:TE_B *2382:A 5.52302e-05
67 *2383:TE_B *2383:A 0.000147955
68 *2390:TE_B *2386:A 8.76257e-05
69 *2390:TE_B *167:116 0.000359627
70 *2680:A *167:107 0
71 *5:35 *2371:A 0.000577016
72 *5:35 *2384:A 5.71472e-05
73 *5:35 *167:152 2.89016e-05
74 *5:35 *167:154 0.000142053
75 *5:35 *167:163 0.000652864
76 *5:35 *167:191 0.0001399
77 *5:35 *167:193 0.000357952
78 *5:35 *167:195 0.000355009
79 *82:8 *167:94 5.52238e-05
80 *86:22 *167:36 0
81 *90:8 *167:23 8.57166e-06
82 *90:8 *167:32 4.85049e-06
83 *90:24 *167:191 0.000148903
84 *99:8 *167:144 2.89016e-05
85 *100:10 *167:152 8.54929e-05
86 *102:8 *2386:A 3.08664e-05
87 *166:12 *167:152 2.24646e-05
88 *166:16 *167:152 0.000148911
89 *166:20 *167:144 0.000227117
90 *166:22 *167:144 5.52238e-05
91 *166:24 *167:137 0.00027093
92 *166:24 *167:144 8.76257e-05
93 *166:26 *167:130 0.000403862
94 *166:26 *167:137 8.57023e-05
95 *166:28 *167:94 0.000144791
96 *166:28 *167:101 5.49489e-05
97 *166:28 *167:130 4.27935e-05
98 *166:30 *167:83 0.000151993
99 *166:30 *167:94 4.40603e-05
100 *166:32 *167:74 0.000154027
101 *166:32 *167:83 4.88637e-05
102 *166:34 *167:65 0.000149037
103 *166:34 *167:74 4.78308e-05
104 *166:38 *167:36 0.00013966
105 *166:38 *167:61 9.25014e-06
106 *166:53 *2383:A 4.75955e-05
107 *166:53 *167:42 0.000258016
108 *166:75 *167:61 4.45163e-05
109 *166:75 *167:191 0.000203569
110 *166:77 *167:191 5.33005e-05
111 *166:79 *167:191 4.18895e-05
112 *166:79 *167:193 0.000270326
113 *166:81 *167:193 8.76257e-05
114 *166:81 *167:195 0.000270326
115 *166:83 *2384:A 5.71472e-05
116 *166:83 *167:195 8.46829e-05
117 *166:174 *2386:A 0.000359773
118 *166:204 *167:152 4.18895e-05
119 *166:204 *167:154 0.000273269
120 *166:204 *167:163 4.5622e-05
121 *166:206 *167:163 0.000479658
*RES
1 *2393:LO *167:4 9.3 
2 *167:4 *2382:A 13.9786 
3 *167:4 *167:17 3 
4 *167:17 *167:23 4.26786 
5 *167:23 *2376:A 9.3 
6 *167:23 *167:32 5.03571 
7 *167:32 *167:36 6.75 
8 *167:36 *167:42 3.96429 
9 *167:42 *2383:A 12.7107 
10 *167:42 *2375:A 9.3 
11 *167:36 *2374:A 9.3 
12 *167:32 *167:61 0.732143 
13 *167:61 *167:65 7.5 
14 *167:65 *2373:A 9.72857 
15 *167:65 *167:74 3.41071 
16 *167:74 *2372:A 9.72857 
17 *167:74 *167:83 3.41071 
18 *167:83 *2370:A 9.72857 
19 *167:83 *167:94 3.83929 
20 *167:94 *2392:A 9.3 
21 *167:94 *167:101 0.535714 
22 *167:101 *167:107 11.5536 
23 *167:107 *2390:A 9.83571 
24 *167:107 *167:116 3.82143 
25 *167:116 *2388:A 9.3 
26 *167:116 *2386:A 13.5321 
27 *167:101 *167:130 4.23214 
28 *167:130 *2387:A 9.3 
29 *167:130 *167:137 3.41071 
30 *167:137 *2385:A 9.3 
31 *167:137 *167:144 3.41071 
32 *167:144 *167:152 11.7857 
33 *167:152 *167:154 2.58929 
34 *167:154 *2391:A 9.3 
35 *167:154 *167:163 6.71429 
36 *167:163 *2371:A 14.7643 
37 *167:163 *2389:A 9.3 
38 *167:152 *2380:A 9.3 
39 *167:144 *2369:A 9.3 
40 *167:61 *167:191 8.10714 
41 *167:191 *167:193 3.41071 
42 *167:193 *167:195 3.41071 
43 *167:195 *2384:A 9.83571 
44 *167:195 *2381:A 9.3 
45 *167:193 *2379:A 9.3 
46 *167:191 *2377:A 9.3 
47 *167:17 *2378:A 9.3 
*END

*D_NET *169 0.00103945
*CONN
*I *2394:A I *D sky130_fd_sc_hd__bufinv_8
*I *2361:Y O *D sky130_fd_sc_hd__inv_2
*CAP
1 *2394:A 0.00033975
2 *2361:Y 0.00033975
3 *2394:A *203:10 0
4 *2394:A *258:6 0.000359947
*RES
1 *2361:Y *2394:A 32.9571 
*END

*D_NET *170 0.0238414
*CONN
*I *2406:TE_B I *D sky130_fd_sc_hd__ebufn_1
*I *2411:TE_B I *D sky130_fd_sc_hd__ebufn_1
*I *2412:TE_B I *D sky130_fd_sc_hd__ebufn_1
*I *2413:TE_B I *D sky130_fd_sc_hd__ebufn_1
*I *2417:TE_B I *D sky130_fd_sc_hd__ebufn_1
*I *2418:TE_B I *D sky130_fd_sc_hd__ebufn_1
*I *2396:TE_B I *D sky130_fd_sc_hd__ebufn_1
*I *2415:TE_B I *D sky130_fd_sc_hd__ebufn_1
*I *2397:TE_B I *D sky130_fd_sc_hd__ebufn_1
*I *2398:TE_B I *D sky130_fd_sc_hd__ebufn_1
*I *2402:TE_B I *D sky130_fd_sc_hd__ebufn_1
*I *2403:TE_B I *D sky130_fd_sc_hd__ebufn_1
*I *2409:TE_B I *D sky130_fd_sc_hd__ebufn_1
*I *2400:TE_B I *D sky130_fd_sc_hd__ebufn_1
*I *2401:TE_B I *D sky130_fd_sc_hd__ebufn_1
*I *2404:TE_B I *D sky130_fd_sc_hd__ebufn_1
*I *2405:TE_B I *D sky130_fd_sc_hd__ebufn_1
*I *2410:TE_B I *D sky130_fd_sc_hd__ebufn_1
*I *2407:TE_B I *D sky130_fd_sc_hd__ebufn_1
*I *2408:TE_B I *D sky130_fd_sc_hd__ebufn_1
*I *2416:TE_B I *D sky130_fd_sc_hd__ebufn_1
*I *2399:TE_B I *D sky130_fd_sc_hd__ebufn_1
*I *2414:TE_B I *D sky130_fd_sc_hd__ebufn_1
*I *2395:TE_B I *D sky130_fd_sc_hd__ebufn_1
*I *2394:Y O *D sky130_fd_sc_hd__bufinv_8
*CAP
1 *2406:TE_B 0.000199896
2 *2411:TE_B 0
3 *2412:TE_B 0
4 *2413:TE_B 0
5 *2417:TE_B 0.000147496
6 *2418:TE_B 0
7 *2396:TE_B 0.000199855
8 *2415:TE_B 0
9 *2397:TE_B 0
10 *2398:TE_B 0
11 *2402:TE_B 2.23854e-05
12 *2403:TE_B 9.36105e-05
13 *2409:TE_B 0.000301776
14 *2400:TE_B 0
15 *2401:TE_B 0.000135783
16 *2404:TE_B 0.000110633
17 *2405:TE_B 0
18 *2410:TE_B 0.000120041
19 *2407:TE_B 0.000144868
20 *2408:TE_B 7.65496e-05
21 *2416:TE_B 0
22 *2399:TE_B 0.000112799
23 *2414:TE_B 6.42276e-05
24 *2395:TE_B 0
25 *2394:Y 0.000347051
26 *170:216 0.000205215
27 *170:203 0.000377853
28 *170:137 0.000135783
29 *170:135 0.000338826
30 *170:121 0.000205965
31 *170:112 0.000215372
32 *170:99 0.000248017
33 *170:88 0.000462452
34 *170:82 0.000418751
35 *170:78 0.000252277
36 *170:76 0.000365442
37 *170:72 0.000415619
38 *170:70 0.000652258
39 *170:64 0.000519976
40 *170:62 0.000572814
41 *170:48 0.000350828
42 *170:38 0.000690565
43 *170:29 0.000143538
44 *170:27 0.000285867
45 *170:25 0.000301208
46 *170:23 0.000162331
47 *170:19 0.000337525
48 *170:10 0.000417
49 *2396:TE_B *2396:A 0.000401939
50 *2396:TE_B *2689:A1 0.000224314
51 *2399:TE_B *171:139 0.000705512
52 *2399:TE_B *171:156 8.76257e-05
53 *2399:TE_B *258:6 0.000793137
54 *2401:TE_B *2401:A 9.60875e-05
55 *2401:TE_B *2692:A 0.000136951
56 *2401:TE_B *171:51 0.00022266
57 *2401:TE_B *171:80 9.71197e-05
58 *2403:TE_B *309:16 0.000252006
59 *2404:TE_B *2694:A 4.43256e-05
60 *2404:TE_B *171:23 0.000260109
61 *2406:TE_B *2395:A 1.08359e-05
62 *2406:TE_B *2406:A 0.000183364
63 *2406:TE_B *2684:A1 2.89114e-05
64 *2407:TE_B *2657:A0 0.00019384
65 *2407:TE_B *171:15 0.000136951
66 *2407:TE_B *171:36 3.17148e-05
67 *2407:TE_B *238:141 0.000138881
68 *2408:TE_B *2408:A 0.000136951
69 *2409:TE_B *2403:A 0
70 *2409:TE_B *2658:A1 0
71 *2409:TE_B *171:80 1.08359e-05
72 *2409:TE_B *309:16 0.000314563
73 *2410:TE_B *2410:A 0.000180764
74 *2410:TE_B *2694:A 4.88637e-05
75 *2414:TE_B *171:167 0.000186662
76 *2414:TE_B *306:20 5.33005e-05
77 *2417:TE_B *2417:A 0.000348813
78 *2417:TE_B *171:193 0.000100261
79 *170:10 *2683:A1 4.01768e-05
80 *170:10 *238:224 6.26466e-05
81 *170:10 *238:248 2.8266e-06
82 *170:19 *2395:A 9.56968e-05
83 *170:19 *238:248 4.98055e-06
84 *170:23 *171:228 5.33005e-05
85 *170:23 *257:6 4.43256e-05
86 *170:25 *171:212 9.71197e-05
87 *170:25 *171:219 4.27935e-05
88 *170:25 *171:228 8.57023e-05
89 *170:27 *171:212 0.000482607
90 *170:29 *171:167 9.60939e-05
91 *170:29 *171:212 8.57023e-05
92 *170:48 *2687:A1 9.90367e-05
93 *170:48 *2687:S 5.71472e-05
94 *170:48 *171:156 0.000483498
95 *170:48 *258:6 0.000547361
96 *170:48 *306:20 5.35516e-05
97 *170:62 *2653:A0 0
98 *170:62 *171:171 0.000167732
99 *170:62 *238:45 0
100 *170:62 *304:24 2.34204e-05
101 *170:72 *2397:A 0.000275366
102 *170:76 *2397:A 4.14279e-05
103 *170:76 *2619:A1 9.90367e-05
104 *170:76 *171:106 0.000238198
105 *170:78 *171:93 4.35421e-05
106 *170:78 *171:106 3.69999e-05
107 *170:82 *171:80 7.95135e-05
108 *170:82 *171:93 4.35336e-05
109 *170:88 *2408:A 4.08637e-05
110 *170:88 *171:47 0.000165034
111 *170:99 *2657:A0 0.000381325
112 *170:99 *171:36 0.000368111
113 *170:99 *171:47 2.24646e-05
114 *170:121 *2410:A 4.08637e-05
115 *170:121 *171:23 0.00010096
116 *170:121 *171:25 9.90431e-05
117 *170:135 *2657:A1 0
118 *170:135 *171:47 1.17968e-05
119 *170:135 *171:80 1.52978e-05
120 *170:203 *171:171 5.80706e-06
121 *170:203 *171:182 8.33559e-05
122 *170:216 *2396:A 9.71197e-05
123 *170:216 *171:193 2.58472e-05
124 spine_top_ow[16] *2403:TE_B 2.59355e-05
125 spine_top_ow[16] *2409:TE_B 6.05161e-06
126 spine_top_ow[1] *2406:TE_B 0.000106412
127 spine_top_ow[21] *2407:TE_B 0
128 spine_top_ow[6] *170:62 0.000346414
129 spine_top_ow[8] *170:62 0
130 *2501:A *170:70 0.000401056
131 *2501:A *170:72 4.43256e-05
132 *2570:DIODE *2406:TE_B 4.46186e-06
133 *2575:DIODE *170:48 0.000173804
134 *2575:DIODE *170:62 7.83659e-05
135 *2586:DIODE *2409:TE_B 0.000142011
136 *2617:A *170:76 0.000142856
137 *2637:A *170:70 0.00014183
138 *2640:A *170:82 0.000141132
139 *2650:A *2417:TE_B 4.51317e-05
140 *2650:A *170:216 9.80173e-05
141 *2681:A *170:10 6.26653e-05
142 *2681:A *170:19 3.42457e-05
143 *24:36 *2401:TE_B 2.58821e-05
144 *24:36 *170:76 4.18895e-05
145 *24:36 *170:78 0.000213172
146 *24:36 *170:82 0.000486628
147 *25:34 *2408:TE_B 0.000116
148 *25:34 *170:88 7.02611e-05
149 *138:8 *2396:TE_B 2.51343e-06
150 *142:22 *2409:TE_B 0
151 *143:10 *2409:TE_B 0
152 *147:19 *2406:TE_B 2.88517e-05
153 *147:19 *170:19 4.16114e-05
154 *148:8 *2404:TE_B 7.77652e-05
155 *148:21 *2403:TE_B 0.00022117
156 *148:21 *170:88 0
157 *159:10 *170:62 0
158 *159:10 *170:203 0
*RES
1 *2394:Y *170:10 20.6929 
2 *170:10 *2395:TE_B 13.8 
3 *170:10 *170:19 2.55357 
4 *170:19 *170:23 5.85714 
5 *170:23 *170:25 2.17857 
6 *170:25 *170:27 4.64286 
7 *170:27 *170:29 1.76786 
8 *170:29 *2414:TE_B 11.0679 
9 *170:29 *170:38 4.5 
10 *170:38 *170:48 13.5893 
11 *170:48 *2399:TE_B 16.8179 
12 *170:48 *2416:TE_B 9.3 
13 *170:38 *170:62 9.83929 
14 *170:62 *170:64 4.5 
15 *170:64 *170:70 10.0179 
16 *170:70 *170:72 3.41071 
17 *170:72 *170:76 6.71429 
18 *170:76 *170:78 2.17857 
19 *170:78 *170:82 9.14286 
20 *170:82 *170:88 10.2321 
21 *170:88 *2408:TE_B 11.4786 
22 *170:88 *170:99 9.48214 
23 *170:99 *2407:TE_B 17.7107 
24 *170:99 *170:112 4.5 
25 *170:112 *2410:TE_B 11.8893 
26 *170:112 *170:121 2.17857 
27 *170:121 *2405:TE_B 9.3 
28 *170:121 *2404:TE_B 12.7107 
29 *170:82 *170:135 0.732143 
30 *170:135 *170:137 4.5 
31 *170:137 *2401:TE_B 13.1214 
32 *170:137 *2400:TE_B 9.3 
33 *170:135 *2409:TE_B 20.425 
34 *170:78 *2403:TE_B 21.6929 
35 *170:76 *2402:TE_B 9.72857 
36 *170:72 *2398:TE_B 9.3 
37 *170:70 *2397:TE_B 9.3 
38 *170:64 *2415:TE_B 9.3 
39 *170:62 *170:203 6.75 
40 *170:203 *2396:TE_B 14.3714 
41 *170:203 *170:216 1.78571 
42 *170:216 *2418:TE_B 9.3 
43 *170:216 *2417:TE_B 13.5321 
44 *170:27 *2413:TE_B 9.3 
45 *170:25 *2412:TE_B 9.3 
46 *170:23 *2411:TE_B 9.3 
47 *170:19 *2406:TE_B 19.3179 
*END

*D_NET *171 0.0223795
*CONN
*I *2406:A I *D sky130_fd_sc_hd__ebufn_1
*I *2395:A I *D sky130_fd_sc_hd__ebufn_1
*I *2411:A I *D sky130_fd_sc_hd__ebufn_1
*I *2412:A I *D sky130_fd_sc_hd__ebufn_1
*I *2413:A I *D sky130_fd_sc_hd__ebufn_1
*I *2417:A I *D sky130_fd_sc_hd__ebufn_1
*I *2418:A I *D sky130_fd_sc_hd__ebufn_1
*I *2396:A I *D sky130_fd_sc_hd__ebufn_1
*I *2415:A I *D sky130_fd_sc_hd__ebufn_1
*I *2414:A I *D sky130_fd_sc_hd__ebufn_1
*I *2416:A I *D sky130_fd_sc_hd__ebufn_1
*I *2399:A I *D sky130_fd_sc_hd__ebufn_1
*I *2404:A I *D sky130_fd_sc_hd__ebufn_1
*I *2405:A I *D sky130_fd_sc_hd__ebufn_1
*I *2397:A I *D sky130_fd_sc_hd__ebufn_1
*I *2398:A I *D sky130_fd_sc_hd__ebufn_1
*I *2402:A I *D sky130_fd_sc_hd__ebufn_1
*I *2403:A I *D sky130_fd_sc_hd__ebufn_1
*I *2400:A I *D sky130_fd_sc_hd__ebufn_1
*I *2409:A I *D sky130_fd_sc_hd__ebufn_1
*I *2401:A I *D sky130_fd_sc_hd__ebufn_1
*I *2408:A I *D sky130_fd_sc_hd__ebufn_1
*I *2410:A I *D sky130_fd_sc_hd__ebufn_1
*I *2407:A I *D sky130_fd_sc_hd__ebufn_1
*I *2419:LO O *D sky130_fd_sc_hd__conb_1
*CAP
1 *2406:A 0.000163259
2 *2395:A 6.26912e-05
3 *2411:A 0
4 *2412:A 0
5 *2413:A 0
6 *2417:A 0.000156159
7 *2418:A 0
8 *2396:A 0.000127933
9 *2415:A 0
10 *2414:A 1.5966e-05
11 *2416:A 0
12 *2399:A 0
13 *2404:A 0
14 *2405:A 0
15 *2397:A 4.28423e-05
16 *2398:A 0
17 *2402:A 1.53865e-05
18 *2403:A 6.18786e-05
19 *2400:A 0
20 *2409:A 8.27381e-05
21 *2401:A 4.02669e-05
22 *2408:A 9.51738e-05
23 *2410:A 5.27687e-05
24 *2407:A 0
25 *2419:LO 4.7543e-05
26 *171:228 0.000256641
27 *171:219 4.03192e-05
28 *171:212 0.000135462
29 *171:193 0.000230643
30 *171:182 0.000316719
31 *171:171 0.000414215
32 *171:167 0.000507332
33 *171:156 0.000437821
34 *171:139 0.000644118
35 *171:132 0.000698722
36 *171:106 0.000198899
37 *171:93 0.000341007
38 *171:80 0.000450177
39 *171:51 0.000181968
40 *171:49 5.89634e-05
41 *171:47 0.000429814
42 *171:36 0.000504381
43 *171:25 0.000263938
44 *171:23 5.94246e-05
45 *171:21 0.000143823
46 *171:15 0.000823686
47 *171:6 0.000378916
48 *2395:A *238:248 0.000200406
49 *2401:A *2692:A 4.88637e-05
50 *2406:A *2684:A1 2.89114e-05
51 *2406:A *238:248 0.000325958
52 *2406:A *238:267 3.51442e-05
53 *2409:A *2658:A1 4.8936e-05
54 *2409:A *2665:A 0.000192766
55 *2409:A *304:32 5.41794e-05
56 *2410:A *2694:A 0.000223558
57 *2414:A *257:6 1.98839e-05
58 *2414:A *306:20 5.52302e-05
59 *171:6 *2626:S 0.000144773
60 *171:15 *2626:S 2.14658e-05
61 *171:15 *238:141 0.000290226
62 *171:23 *2694:A 0.000347734
63 *171:25 *2694:A 8.76257e-05
64 *171:47 *2657:A0 8.47107e-05
65 *171:47 *2658:A1 4.03318e-05
66 *171:47 *2665:A 0
67 *171:80 *2658:A1 1.59782e-05
68 *171:132 *2622:A1 0.000185643
69 *171:132 *238:141 0.000160621
70 *171:132 *258:6 5.23057e-05
71 *171:139 *258:6 4.88637e-05
72 *171:156 *2653:A0 0.000100736
73 *171:156 *306:20 0.00015134
74 *171:167 *257:6 0.000312203
75 *171:167 *306:20 1.54142e-05
76 *171:171 *2652:S 0
77 *171:171 *270:14 0.000361155
78 *171:212 *257:6 0.000651973
79 *171:219 *257:6 5.52302e-05
80 *171:228 *257:6 0.0001399
81 spine_top_ow[6] *171:171 0.000354607
82 spine_top_ow[8] *171:156 5.33433e-05
83 *2396:TE_B *2396:A 0.000401939
84 *2399:TE_B *171:139 0.000705512
85 *2399:TE_B *171:156 8.76257e-05
86 *2401:TE_B *2401:A 9.60875e-05
87 *2401:TE_B *171:51 0.00022266
88 *2401:TE_B *171:80 9.71197e-05
89 *2404:TE_B *171:23 0.000260109
90 *2406:TE_B *2395:A 1.08359e-05
91 *2406:TE_B *2406:A 0.000183364
92 *2407:TE_B *171:15 0.000136951
93 *2407:TE_B *171:36 3.17148e-05
94 *2408:TE_B *2408:A 0.000136951
95 *2409:TE_B *2403:A 0
96 *2409:TE_B *171:80 1.08359e-05
97 *2410:TE_B *2410:A 0.000180764
98 *2414:TE_B *171:167 0.000186662
99 *2417:TE_B *2417:A 0.000348813
100 *2417:TE_B *171:193 0.000100261
101 *2501:A *2397:A 0.000362992
102 *2501:A *171:106 0.000534229
103 *2575:DIODE *171:171 5.59013e-05
104 *2576:DIODE *2396:A 5.52238e-05
105 *2605:A *171:21 7.60306e-05
106 *2605:A *171:132 9.90431e-05
107 *2617:A *171:106 0.000142856
108 *2640:A *171:80 7.49267e-05
109 *2650:A *171:171 4.1331e-06
110 *2650:A *171:182 4.94268e-05
111 *24:36 *2401:A 0.000100124
112 *24:36 *171:51 0.000109842
113 *137:10 *2396:A 4.01768e-05
114 *142:22 *2403:A 0.000125731
115 *142:22 *171:80 0.000100262
116 *143:10 *2409:A 1.23973e-05
117 *148:21 *2403:A 7.83462e-05
118 *149:24 *171:15 0.00010096
119 *159:19 *2396:A 8.59075e-05
120 *161:6 *2417:A 5.57989e-05
121 *170:19 *2395:A 9.56968e-05
122 *170:23 *171:228 5.33005e-05
123 *170:25 *171:212 9.71197e-05
124 *170:25 *171:219 4.27935e-05
125 *170:25 *171:228 8.57023e-05
126 *170:27 *171:212 0.000482607
127 *170:29 *171:167 9.60939e-05
128 *170:29 *171:212 8.57023e-05
129 *170:48 *171:156 0.000483498
130 *170:62 *171:171 0.000167732
131 *170:72 *2397:A 0.000275366
132 *170:76 *2397:A 4.14279e-05
133 *170:76 *171:106 0.000238198
134 *170:78 *171:93 4.35421e-05
135 *170:78 *171:106 3.69999e-05
136 *170:82 *171:80 7.95135e-05
137 *170:82 *171:93 4.35336e-05
138 *170:88 *2408:A 4.08637e-05
139 *170:88 *171:47 0.000165034
140 *170:99 *171:36 0.000368111
141 *170:99 *171:47 2.24646e-05
142 *170:121 *2410:A 4.08637e-05
143 *170:121 *171:23 0.00010096
144 *170:121 *171:25 9.90431e-05
145 *170:135 *171:47 1.17968e-05
146 *170:135 *171:80 1.52978e-05
147 *170:203 *171:171 5.80706e-06
148 *170:203 *171:182 8.33559e-05
149 *170:216 *2396:A 9.71197e-05
150 *170:216 *171:193 2.58472e-05
*RES
1 *2419:LO *171:6 10.6571 
2 *171:6 *2407:A 9.3 
3 *171:6 *171:15 7.125 
4 *171:15 *171:21 10.9464 
5 *171:21 *171:23 3.41071 
6 *171:23 *171:25 0.946429 
7 *171:25 *2410:A 11.4786 
8 *171:25 *171:36 9.48214 
9 *171:36 *2408:A 15.5679 
10 *171:36 *171:47 4.98214 
11 *171:47 *171:49 4.5 
12 *171:49 *171:51 2.17857 
13 *171:51 *2401:A 11.0679 
14 *171:51 *2409:A 20.8536 
15 *171:49 *2400:A 9.3 
16 *171:47 *171:80 9.46429 
17 *171:80 *2403:A 20.2464 
18 *171:80 *171:93 2.58929 
19 *171:93 *2402:A 9.72857 
20 *171:93 *171:106 6.83929 
21 *171:106 *2398:A 9.3 
22 *171:106 *2397:A 12.7107 
23 *171:23 *2405:A 9.3 
24 *171:21 *2404:A 9.3 
25 *171:15 *171:132 7.94643 
26 *171:132 *2399:A 9.3 
27 *171:132 *171:139 7.51786 
28 *171:139 *2416:A 9.3 
29 *171:139 *171:156 17.375 
30 *171:156 *2414:A 9.83571 
31 *171:156 *171:167 3.42857 
32 *171:167 *171:171 14.0357 
33 *171:171 *2415:A 13.8 
34 *171:171 *171:182 7.05357 
35 *171:182 *2396:A 13.9429 
36 *171:182 *171:193 1.78571 
37 *171:193 *2418:A 9.3 
38 *171:193 *2417:A 13.5321 
39 *171:167 *2413:A 9.3 
40 *171:167 *171:212 6.28571 
41 *171:212 *2412:A 9.3 
42 *171:212 *171:219 0.535714 
43 *171:219 *2411:A 9.3 
44 *171:219 *171:228 5.85714 
45 *171:228 *2395:A 16.3536 
46 *171:228 *2406:A 19.0143 
*END

*D_NET *173 0.0198958
*CONN
*I *2445:B I *D sky130_fd_sc_hd__and2_2
*I *2421:B I *D sky130_fd_sc_hd__and2_2
*I *2429:B I *D sky130_fd_sc_hd__and2_2
*I *2431:B I *D sky130_fd_sc_hd__and2_2
*I *2435:B I *D sky130_fd_sc_hd__and2_2
*I *2433:B I *D sky130_fd_sc_hd__and2_2
*I *2437:B I *D sky130_fd_sc_hd__and2_2
*I *2427:B I *D sky130_fd_sc_hd__and2_2
*I *2420:A I *D sky130_fd_sc_hd__buf_8
*I *2425:B I *D sky130_fd_sc_hd__and2_2
*I *2423:B I *D sky130_fd_sc_hd__and2_2
*I *2439:B I *D sky130_fd_sc_hd__and2_2
*I *2441:B I *D sky130_fd_sc_hd__and2_2
*I *2443:B I *D sky130_fd_sc_hd__and2_2
*I *2447:B I *D sky130_fd_sc_hd__and2_2
*I *2449:B I *D sky130_fd_sc_hd__and2_2
*I *2455:B I *D sky130_fd_sc_hd__and2_2
*I *2451:B I *D sky130_fd_sc_hd__and2_2
*I *2453:B I *D sky130_fd_sc_hd__and2_2
*I *2360:A I *D sky130_fd_sc_hd__inv_2
*I *2545:X O *D sky130_fd_sc_hd__buf_8
*CAP
1 *2445:B 0
2 *2421:B 6.65396e-05
3 *2429:B 0
4 *2431:B 0
5 *2435:B 0.000153657
6 *2433:B 0
7 *2437:B 0.000349514
8 *2427:B 0
9 *2420:A 0.000272373
10 *2425:B 0.000163618
11 *2423:B 0
12 *2439:B 1.18928e-05
13 *2441:B 1.11927e-05
14 *2443:B 2.23854e-05
15 *2447:B 0
16 *2449:B 2.23854e-05
17 *2455:B 0
18 *2451:B 7.17584e-05
19 *2453:B 0
20 *2360:A 8.54558e-05
21 *2545:X 0
22 *173:182 0.000270633
23 *173:165 0.000659959
24 *173:163 0.000325491
25 *173:161 0.000317442
26 *173:148 0.00104686
27 *173:124 0.000613091
28 *173:120 0.00119762
29 *173:118 0.000528199
30 *173:107 0.000878673
31 *173:88 0.000717597
32 *173:79 0.000264539
33 *173:70 0.000334713
34 *173:66 0.000288392
35 *173:59 0.000228534
36 *173:48 0.000746536
37 *173:20 0.00014786
38 *173:18 0.000290825
39 *173:10 0.000574941
40 *173:4 0.0010137
41 *2437:B *2438:A 1.24368e-05
42 *2451:B *2454:A 9.12639e-05
43 *173:18 *2456:A 0.000151333
44 *173:20 *2454:A 6.98254e-06
45 *173:48 *2450:A 5.52302e-05
46 *173:59 *2448:A 9.90431e-05
47 *173:66 *2446:A 2.89114e-05
48 *173:79 *2442:A 5.52238e-05
49 *173:107 *2424:A 4.01768e-05
50 *173:107 *2537:CLK 0.00012501
51 *173:107 *227:14 1.85392e-05
52 *173:118 *2424:A 2.24079e-05
53 *173:120 *2422:A 0
54 *173:124 *2422:A 0
55 *173:148 *2428:A 0
56 *173:148 *2430:A 0
57 *173:163 *2430:A 5.33334e-05
58 *173:182 *2434:A 7.57614e-05
59 spine_bot_iw[10] *173:107 3.93986e-05
60 spine_bot_iw[11] *173:124 0
61 spine_bot_iw[12] *173:148 0
62 spine_bot_iw[20] *173:182 0.000108035
63 spine_bot_iw[6] *173:124 0
64 spine_bot_iw[7] *173:118 0.000763691
65 spine_bot_iw[7] *173:120 0.000321475
66 spine_bot_iw[7] *173:124 0.000139464
67 *2425:A *2420:A 0.000749913
68 *2425:A *2425:B 0.000447151
69 *2431:A *173:182 0
70 *2433:A *173:182 9.54798e-06
71 *2441:A *173:107 0.000156913
72 *2449:A *173:59 0.00014285
73 *2451:A *173:18 8.38872e-05
74 *2453:A *2360:A 9.99853e-05
75 *2534:RESET_B *173:118 0.000148031
76 *2534:RESET_B *173:120 0.00021438
77 *9:23 *173:118 0.000396886
78 *11:27 *173:161 3.93247e-05
79 *12:19 *173:161 0.000181535
80 *13:19 *2421:B 0.000399841
81 *15:17 *2421:B 0.000399841
82 *15:17 *2435:B 7.32272e-05
83 *21:64 *2443:B 0
84 *21:64 *173:66 0.000188586
85 *21:64 *173:70 0.000285746
86 *21:64 *173:79 0.000101157
87 *21:64 *173:88 0.000106467
88 *21:64 *173:107 0.000547282
89 *22:40 *173:107 9.90431e-05
90 *22:40 *173:118 0.000481568
91 *163:10 *2435:B 3.48705e-05
92 *164:91 *173:118 0.000237514
93 *164:93 *173:118 0.000386176
*RES
1 *2545:X *173:4 9.3 
2 *173:4 *173:10 11.8393 
3 *173:10 *173:18 8.01786 
4 *173:18 *173:20 0.946429 
5 *173:20 *2360:A 11.0679 
6 *173:20 *2453:B 9.3 
7 *173:18 *2451:B 11.0679 
8 *173:10 *2455:B 13.8 
9 *173:4 *173:48 9.16071 
10 *173:48 *2449:B 9.72857 
11 *173:48 *173:59 3.01786 
12 *173:59 *2447:B 9.3 
13 *173:59 *173:66 2.58929 
14 *173:66 *173:70 4.25 
15 *173:70 *2443:B 9.72857 
16 *173:70 *173:79 2.58929 
17 *173:79 *2441:B 9.72857 
18 *173:79 *173:88 2.58929 
19 *173:88 *2439:B 9.72857 
20 *173:88 *173:107 22 
21 *173:107 *2423:B 9.3 
22 *173:107 *173:118 18.9821 
23 *173:118 *173:120 4.375 
24 *173:120 *173:124 7.96429 
25 *173:124 *2425:B 13.5321 
26 *173:124 *2420:A 16.4071 
27 *173:120 *173:148 23.4821 
28 *173:148 *2427:B 9.3 
29 *173:148 *173:161 4.80357 
30 *173:161 *173:163 2.58929 
31 *173:163 *173:165 3 
32 *173:165 *2437:B 14.8 
33 *173:165 *173:182 11.8571 
34 *173:182 *2433:B 9.3 
35 *173:182 *2435:B 12.3357 
36 *173:163 *2431:B 9.3 
37 *173:161 *2429:B 9.3 
38 *173:118 *2421:B 17.6214 
39 *173:66 *2445:B 9.3 
*END

*D_NET *174 0.000717048
*CONN
*I *2422:A I *D sky130_fd_sc_hd__buf_8
*I *2421:X O *D sky130_fd_sc_hd__and2_2
*CAP
1 *2422:A 0.000201787
2 *2421:X 0.000201787
3 spine_bot_iw[6] *2422:A 0.000313473
4 *2534:RESET_B *2422:A 0
5 *173:120 *2422:A 0
6 *173:124 *2422:A 0
*RES
1 *2421:X *2422:A 31.6714 
*END

*D_NET *175 0.00100184
*CONN
*I *2424:A I *D sky130_fd_sc_hd__buf_8
*I *2423:X O *D sky130_fd_sc_hd__and2_2
*CAP
1 *2424:A 0.000269877
2 *2423:X 0.000269877
3 *2424:A *2536:CLK 7.58571e-05
4 spine_bot_iw[10] *2424:A 0.000317594
5 spine_bot_iw[9] *2424:A 0
6 *9:23 *2424:A 6.05161e-06
7 *173:107 *2424:A 4.01768e-05
8 *173:118 *2424:A 2.24079e-05
*RES
1 *2423:X *2424:A 33.4393 
*END

*D_NET *176 0.000408827
*CONN
*I *2426:A I *D sky130_fd_sc_hd__buf_8
*I *2425:X O *D sky130_fd_sc_hd__and2_2
*CAP
1 *2426:A 0.000176514
2 *2425:X 0.000176514
3 spine_bot_iw[13] *2426:A 0
4 spine_bot_iw[7] *2426:A 0
5 spine_bot_iw[8] *2426:A 0
6 *2425:A *2426:A 5.57989e-05
*RES
1 *2425:X *2426:A 30.4929 
*END

*D_NET *177 0.00106436
*CONN
*I *2428:A I *D sky130_fd_sc_hd__buf_8
*I *2427:X O *D sky130_fd_sc_hd__and2_2
*CAP
1 *2428:A 0.000325074
2 *2427:X 0.000325074
3 spine_bot_iw[13] *2428:A 0.000228244
4 *11:27 *2428:A 0.000185964
5 *173:148 *2428:A 0
*RES
1 *2427:X *2428:A 33.7429 
*END

*D_NET *178 0.000397757
*CONN
*I *2430:A I *D sky130_fd_sc_hd__buf_8
*I *2429:X O *D sky130_fd_sc_hd__and2_2
*CAP
1 *2430:A 0.000169075
2 *2429:X 0.000169075
3 *2430:A *2432:A 0
4 spine_bot_iw[17] *2430:A 6.27272e-06
5 *173:148 *2430:A 0
6 *173:163 *2430:A 5.33334e-05
*RES
1 *2429:X *2430:A 30.1893 
*END

*D_NET *179 0.000503903
*CONN
*I *2432:A I *D sky130_fd_sc_hd__buf_8
*I *2431:X O *D sky130_fd_sc_hd__and2_2
*CAP
1 *2432:A 0.00022796
2 *2431:X 0.00022796
3 *2432:A *2434:A 4.79842e-05
4 spine_bot_iw[16] *2432:A 0
5 spine_bot_iw[19] *2432:A 0
6 spine_bot_iw[20] *2432:A 0
7 *2430:A *2432:A 0
*RES
1 *2431:X *2432:A 31.975 
*END

*D_NET *180 0.000591842
*CONN
*I *2434:A I *D sky130_fd_sc_hd__buf_8
*I *2433:X O *D sky130_fd_sc_hd__and2_2
*CAP
1 *2434:A 0.000163917
2 *2433:X 0.000163917
3 spine_bot_iw[18] *2434:A 0.000140263
4 spine_bot_iw[20] *2434:A 0
5 *2431:A *2434:A 0
6 *2432:A *2434:A 4.79842e-05
7 *173:182 *2434:A 7.57614e-05
*RES
1 *2433:X *2434:A 31.6714 
*END

*D_NET *181 0.00023521
*CONN
*I *2436:A I *D sky130_fd_sc_hd__buf_8
*I *2435:X O *D sky130_fd_sc_hd__and2_2
*CAP
1 *2436:A 0.000112509
2 *2435:X 0.000112509
3 spine_bot_iw[20] *2436:A 0
4 *2437:A *2436:A 1.01912e-05
*RES
1 *2435:X *2436:A 29.5464 
*END

*D_NET *182 0.000374154
*CONN
*I *2438:A I *D sky130_fd_sc_hd__buf_8
*I *2437:X O *D sky130_fd_sc_hd__and2_2
*CAP
1 *2438:A 0.000180859
2 *2437:X 0.000180859
3 spine_bot_iw[20] *2438:A 0
4 *2437:B *2438:A 1.24368e-05
*RES
1 *2437:X *2438:A 30.1893 
*END

*D_NET *183 0.000739068
*CONN
*I *2440:A I *D sky130_fd_sc_hd__buf_8
*I *2439:X O *D sky130_fd_sc_hd__and2_2
*CAP
1 *2440:A 0.000369534
2 *2439:X 0.000369534
3 *14:34 *2440:A 0
*RES
1 *2439:X *2440:A 34.1 
*END

*D_NET *184 0.000412108
*CONN
*I *2442:A I *D sky130_fd_sc_hd__buf_8
*I *2441:X O *D sky130_fd_sc_hd__and2_2
*CAP
1 *2442:A 0.000103964
2 *2441:X 0.000103964
3 *2442:A *2444:A 0
4 *2443:A *2442:A 2.56694e-05
5 *14:34 *2442:A 0.000123288
6 *173:79 *2442:A 5.52238e-05
*RES
1 *2441:X *2442:A 29.7786 
*END

*D_NET *185 0.000540949
*CONN
*I *2444:A I *D sky130_fd_sc_hd__buf_8
*I *2443:X O *D sky130_fd_sc_hd__and2_2
*CAP
1 *2444:A 0.000227911
2 *2443:X 0.000227911
3 *2444:A *2446:A 0
4 spine_bot_iw[21] *2444:A 8.51263e-05
5 spine_bot_iw[22] *2444:A 0
6 spine_bot_iw[23] *2444:A 0
7 *2442:A *2444:A 0
8 *2443:A *2444:A 0
9 *14:34 *2444:A 0
*RES
1 *2443:X *2444:A 31.975 
*END

*D_NET *186 0.000631561
*CONN
*I *2446:A I *D sky130_fd_sc_hd__buf_8
*I *2445:X O *D sky130_fd_sc_hd__and2_2
*CAP
1 *2446:A 0.000283752
2 *2445:X 0.000283752
3 *2446:A *2448:A 0
4 spine_bot_iw[21] *2446:A 0
5 spine_bot_iw[23] *2446:A 3.51442e-05
6 spine_bot_iw[24] *2446:A 0
7 spine_bot_iw[25] *2446:A 0
8 *2444:A *2446:A 0
9 *2539:RESET_B *2446:A 0
10 *22:40 *2446:A 0
11 *173:66 *2446:A 2.89114e-05
*RES
1 *2445:X *2446:A 32.5107 
*END

*D_NET *187 0.000445333
*CONN
*I *2448:A I *D sky130_fd_sc_hd__buf_8
*I *2447:X O *D sky130_fd_sc_hd__and2_2
*CAP
1 *2448:A 0.000120398
2 *2447:X 0.000120398
3 *2446:A *2448:A 0
4 *2539:RESET_B *2448:A 6.97972e-05
5 *22:40 *2448:A 3.56976e-05
6 *173:59 *2448:A 9.90431e-05
*RES
1 *2447:X *2448:A 30.1893 
*END

*D_NET *188 0.000636597
*CONN
*I *2450:A I *D sky130_fd_sc_hd__buf_8
*I *2449:X O *D sky130_fd_sc_hd__and2_2
*CAP
1 *2450:A 0.000225815
2 *2449:X 0.000225815
3 *2539:RESET_B *2450:A 0.000129736
4 *173:48 *2450:A 5.52302e-05
*RES
1 *2449:X *2450:A 32.5107 
*END

*D_NET *189 0.00092928
*CONN
*I *2452:A I *D sky130_fd_sc_hd__buf_8
*I *2451:X O *D sky130_fd_sc_hd__and2_2
*CAP
1 *2452:A 0.000410216
2 *2451:X 0.000410216
3 spine_bot_iw[27] *2452:A 0.000108848
*RES
1 *2451:X *2452:A 34.1536 
*END

*D_NET *190 0.000664602
*CONN
*I *2454:A I *D sky130_fd_sc_hd__buf_8
*I *2453:X O *D sky130_fd_sc_hd__and2_2
*CAP
1 *2454:A 0.000283178
2 *2453:X 0.000283178
3 *2454:A *2456:A 0
4 *2451:B *2454:A 9.12639e-05
5 *173:20 *2454:A 6.98254e-06
*RES
1 *2453:X *2454:A 31.4214 
*END

*D_NET *191 0.00107399
*CONN
*I *2456:A I *D sky130_fd_sc_hd__buf_8
*I *2455:X O *D sky130_fd_sc_hd__and2_2
*CAP
1 *2456:A 0.000437182
2 *2455:X 0.000437182
3 *2366:A *2456:A 0
4 *2454:A *2456:A 0
5 *23:30 *2456:A 4.82947e-05
6 *173:18 *2456:A 0.000151333
*RES
1 *2455:X *2456:A 35.35 
*END

*D_NET *192 0.0110775
*CONN
*I *2505:A I *D sky130_fd_sc_hd__buf_8
*I *2457:A I *D sky130_fd_sc_hd__buf_8
*I *2534:Q O *D sky130_fd_sc_hd__dfrbp_2
*CAP
1 *2505:A 0
2 *2457:A 6.70618e-05
3 *2534:Q 0.000381389
4 *192:19 0.00315897
5 *192:8 0.00360742
6 *192:19 *2459:A 0
7 *192:19 *193:12 0.00292949
8 spine_bot_iw[2] *2457:A 0
9 spine_bot_iw[3] *192:19 5.45041e-05
10 spine_bot_iw[4] *2457:A 0.000128146
11 spine_bot_iw[4] *192:19 7.03408e-05
12 spine_top_iw[3] *192:19 0.000108848
13 spine_top_iw[6] *192:19 0
14 *11:27 *192:8 0.000571292
*RES
1 *2534:Q *192:8 19.2643 
2 *192:8 *2457:A 15.4429 
3 *192:8 *192:19 76.3214 
4 *192:19 *2505:A 13.8 
*END

*D_NET *193 0.00896791
*CONN
*I *2458:A I *D sky130_fd_sc_hd__buf_8
*I *2506:A I *D sky130_fd_sc_hd__buf_8
*I *2535:Q O *D sky130_fd_sc_hd__dfrbp_2
*CAP
1 *2458:A 0
2 *2506:A 2.76557e-05
3 *2535:Q 0.000172734
4 *193:12 0.00271132
5 *193:10 0.00268366
6 *193:8 0.000172734
7 *2506:A *257:6 2.89016e-05
8 *193:8 *225:8 4.49693e-05
9 *193:12 *2459:A 0
10 *193:12 *194:19 0
11 spine_bot_iw[5] *193:12 0
12 spine_top_iw[6] *193:12 0.000196449
13 *192:19 *193:12 0.00292949
*RES
1 *2535:Q *193:8 11.8 
2 *193:8 *193:10 4.5 
3 *193:10 *193:12 68.125 
4 *193:12 *2506:A 14.3357 
5 *193:8 *2458:A 9.3 
*END

*D_NET *194 0.00941256
*CONN
*I *2507:A I *D sky130_fd_sc_hd__buf_8
*I *2459:A I *D sky130_fd_sc_hd__buf_8
*I *2536:Q O *D sky130_fd_sc_hd__dfrbp_2
*CAP
1 *2507:A 0
2 *2459:A 0.000428146
3 *2536:Q 0
4 *194:19 0.00352244
5 *194:6 0.00395058
6 *194:19 *195:17 0
7 spine_bot_iw[4] *2459:A 0
8 spine_bot_iw[5] *194:19 0.000161013
9 spine_bot_iw[6] *2459:A 0.000375869
10 spine_bot_iw[6] *194:19 0.000313532
11 spine_top_iw[5] *194:19 0.00020212
12 spine_top_iw[6] *194:19 0.00038395
13 *11:27 *2459:A 5.65955e-05
14 *12:19 *2459:A 1.83136e-05
15 *192:19 *2459:A 0
16 *193:12 *2459:A 0
17 *193:12 *194:19 0
*RES
1 *2536:Q *194:6 13.8 
2 *194:6 *2459:A 23.5679 
3 *194:6 *194:19 68.7321 
4 *194:19 *2507:A 13.8 
*END

*D_NET *195 0.00748323
*CONN
*I *2508:A I *D sky130_fd_sc_hd__buf_8
*I *2460:A I *D sky130_fd_sc_hd__buf_8
*I *2537:Q O *D sky130_fd_sc_hd__dfrbp_2
*CAP
1 *2508:A 0
2 *2460:A 8.6653e-05
3 *2537:Q 0
4 *195:17 0.00275388
5 *195:6 0.00284053
6 *195:17 *2461:A 4.57352e-05
7 *195:17 *196:19 0.0014215
8 spine_bot_iw[6] *2460:A 6.32633e-05
9 spine_bot_iw[6] *195:17 0.0001198
10 spine_top_iw[8] *195:17 0.000151879
11 *133:12 *195:17 0
12 *164:89 *195:17 0
13 *164:91 *2460:A 0
14 *164:91 *195:17 0
15 *194:19 *195:17 0
*RES
1 *2537:Q *195:6 13.8 
2 *195:6 *2460:A 15.4429 
3 *195:6 *195:17 61.75 
4 *195:17 *2508:A 13.8 
*END

*D_NET *196 0.00581219
*CONN
*I *2509:A I *D sky130_fd_sc_hd__buf_8
*I *2461:A I *D sky130_fd_sc_hd__buf_8
*I *2538:Q O *D sky130_fd_sc_hd__dfrbp_2
*CAP
1 *2509:A 0
2 *2461:A 5.28887e-05
3 *2538:Q 7.72012e-05
4 *196:19 0.00197836
5 *196:8 0.00210845
6 *196:8 *228:8 2.95726e-05
7 *196:19 *2465:A 0
8 *196:19 *200:19 0
9 spine_bot_iw[8] *196:19 0
10 spine_bot_iw[9] *196:19 0
11 *133:12 *196:19 0
12 *164:89 *2461:A 6.74815e-05
13 *164:89 *196:8 6.05161e-06
14 *164:89 *196:19 2.49484e-05
15 *195:17 *2461:A 4.57352e-05
16 *195:17 *196:19 0.0014215
*RES
1 *2538:Q *196:8 14.7464 
2 *196:8 *2461:A 15.4429 
3 *196:8 *196:19 47.1786 
4 *196:19 *2509:A 13.8 
*END

*D_NET *197 0.00573137
*CONN
*I *2510:A I *D sky130_fd_sc_hd__buf_8
*I *2462:A I *D sky130_fd_sc_hd__buf_8
*I *2540:Q O *D sky130_fd_sc_hd__dfrbp_2
*CAP
1 *2510:A 0.000734518
2 *2462:A 0.000246426
3 *2540:Q 0.000790696
4 *197:8 0.00177164
5 *2510:A *2463:A 2.78729e-05
6 *2510:A *2465:A 0
7 *2510:A *2511:A 0.000419273
8 *2510:A *200:19 0
9 *197:8 *2464:A 5.17614e-05
10 spine_bot_iw[10] *2462:A 0.000514323
11 spine_bot_iw[10] *2510:A 0.00024338
12 spine_bot_iw[9] *2462:A 0
13 spine_bot_iw[9] *2510:A 0
14 *164:39 *197:8 0.000363837
15 *164:52 *197:8 0.000567644
*RES
1 *2540:Q *197:8 25.0143 
2 *197:8 *2462:A 20.3 
3 *197:8 *2510:A 31.8357 
*END

*D_NET *198 0.00537963
*CONN
*I *2511:A I *D sky130_fd_sc_hd__buf_8
*I *2463:A I *D sky130_fd_sc_hd__buf_8
*I *2541:Q O *D sky130_fd_sc_hd__dfrbp_2
*CAP
1 *2511:A 0.00067986
2 *2463:A 0.0001855
3 *2541:Q 0.000365995
4 *198:8 0.00123135
5 *2463:A *2464:A 0.000275809
6 *2511:A *2464:A 0.00038304
7 *2511:A *199:21 0.00151486
8 *2511:A *200:19 0
9 *198:8 *232:8 4.01768e-05
10 spine_bot_iw[10] *2463:A 0.000195481
11 *2510:A *2463:A 2.78729e-05
12 *2510:A *2511:A 0.000419273
13 *2538:RESET_B *2463:A 5.25998e-05
14 *164:64 *2463:A 7.80714e-06
*RES
1 *2541:Q *198:8 18.0321 
2 *198:8 *2463:A 19.925 
3 *198:8 *2511:A 37.6036 
*END

*D_NET *199 0.0076541
*CONN
*I *2512:A I *D sky130_fd_sc_hd__buf_8
*I *2464:A I *D sky130_fd_sc_hd__buf_8
*I *2542:Q O *D sky130_fd_sc_hd__dfrbp_2
*CAP
1 *2512:A 2.91597e-05
2 *2464:A 0.000240825
3 *2542:Q 0
4 *199:21 0.00197193
5 *199:6 0.0021836
6 *199:21 *2474:A 0.000277885
7 *199:21 *2476:A 0
8 *199:21 *200:19 0
9 spine_top_iw[10] *199:21 7.8327e-05
10 spine_top_iw[14] *199:21 0.000280978
11 *2463:A *2464:A 0.000275809
12 *2511:A *2464:A 0.00038304
13 *2511:A *199:21 0.00151486
14 *2542:RESET_B *2464:A 0.000145594
15 *11:55 *199:21 0
16 *21:28 *2512:A 1.92905e-05
17 *164:64 *2464:A 0.000201035
18 *197:8 *2464:A 5.17614e-05
*RES
1 *2542:Q *199:6 13.8 
2 *199:6 *2464:A 23.0679 
3 *199:6 *199:21 49.8571 
4 *199:21 *2512:A 9.83571 
*END

*D_NET *200 0.0059316
*CONN
*I *2513:A I *D sky130_fd_sc_hd__buf_8
*I *2465:A I *D sky130_fd_sc_hd__buf_8
*I *2543:Q O *D sky130_fd_sc_hd__dfrbp_2
*CAP
1 *2513:A 2.61003e-05
2 *2465:A 0.000154354
3 *2543:Q 0
4 *200:19 0.00250924
5 *200:6 0.0026375
6 *2513:A *283:24 2.89114e-05
7 *200:19 *2474:A 0
8 spine_top_iw[8] *200:19 0.00057549
9 *2510:A *2465:A 0
10 *2510:A *200:19 0
11 *2511:A *200:19 0
12 *133:12 *200:19 0
13 *196:19 *2465:A 0
14 *196:19 *200:19 0
15 *199:21 *200:19 0
*RES
1 *2543:Q *200:6 13.8 
2 *200:6 *2465:A 16.3893 
3 *200:6 *200:19 47.1786 
4 *200:19 *2513:A 14.3357 
*END

*D_NET *203 0.0192085
*CONN
*I *2469:B I *D sky130_fd_sc_hd__and2_2
*I *2468:A I *D sky130_fd_sc_hd__buf_8
*I *2471:B I *D sky130_fd_sc_hd__and2_2
*I *2487:B I *D sky130_fd_sc_hd__and2_2
*I *2479:B I *D sky130_fd_sc_hd__and2_2
*I *2477:B I *D sky130_fd_sc_hd__and2_2
*I *2481:B I *D sky130_fd_sc_hd__and2_2
*I *2483:B I *D sky130_fd_sc_hd__and2_2
*I *2485:B I *D sky130_fd_sc_hd__and2_2
*I *2475:B I *D sky130_fd_sc_hd__and2_2
*I *2473:B I *D sky130_fd_sc_hd__and2_2
*I *2489:B I *D sky130_fd_sc_hd__and2_2
*I *2491:B I *D sky130_fd_sc_hd__and2_2
*I *2493:B I *D sky130_fd_sc_hd__and2_2
*I *2495:B I *D sky130_fd_sc_hd__and2_2
*I *2497:B I *D sky130_fd_sc_hd__and2_2
*I *2499:B I *D sky130_fd_sc_hd__and2_2
*I *2501:B I *D sky130_fd_sc_hd__and2_2
*I *2503:B I *D sky130_fd_sc_hd__and2_2
*I *2361:A I *D sky130_fd_sc_hd__inv_2
*I *2548:X O *D sky130_fd_sc_hd__buf_8
*CAP
1 *2469:B 0
2 *2468:A 0.000446056
3 *2471:B 0
4 *2487:B 0
5 *2479:B 0.000165441
6 *2477:B 2.66002e-05
7 *2481:B 0
8 *2483:B 0.000106087
9 *2485:B 0.000102155
10 *2475:B 0
11 *2473:B 0.000264119
12 *2489:B 0
13 *2491:B 1.11927e-05
14 *2493:B 2.23854e-05
15 *2495:B 0.000189931
16 *2497:B 0
17 *2499:B 0
18 *2501:B 0
19 *2503:B 4.97909e-05
20 *2361:A 2.80661e-05
21 *2548:X 0.000714678
22 *203:212 0.000536022
23 *203:205 0.000231236
24 *203:192 0.000191369
25 *203:149 0.000297391
26 *203:147 0.000271524
27 *203:145 0.000235363
28 *203:125 0.000712988
29 *203:115 0.000688673
30 *203:113 0.000993918
31 *203:109 0.000704684
32 *203:102 0.000107234
33 *203:91 0.000134973
34 *203:82 0.000231106
35 *203:60 0.000701043
36 *203:45 0.000411681
37 *203:38 0.000245495
38 *203:21 0.000801233
39 *203:10 0.00130191
40 *2361:A *258:6 2.84109e-05
41 *2468:A *2470:A 8.1835e-05
42 *2473:B *2474:A 2.72859e-05
43 *2479:B *258:6 3.48705e-05
44 *2483:B *2482:A 4.79842e-05
45 *2483:B *2486:A 0
46 *2495:B *2496:A 0
47 *2495:B *279:8 0.000154027
48 *2495:B *282:8 0.000274294
49 *2503:B *279:8 0.000141734
50 *2503:B *282:8 4.73286e-05
51 *203:38 *2504:A 0
52 *203:38 *280:12 5.49544e-05
53 *203:45 *2502:A 2.90548e-05
54 *203:45 *280:12 0.000258096
55 *203:60 *2500:A 1.55885e-05
56 *203:60 *2502:A 2.27416e-05
57 *203:60 *280:12 0.000129515
58 *203:60 *280:14 0.000393807
59 *203:82 *280:14 0.00075521
60 *203:91 *280:14 0.000317256
61 *203:102 *280:14 0.000314889
62 *203:109 *280:14 0.000117394
63 *203:115 *2476:A 0
64 *203:115 *2478:A 0.000339359
65 *203:125 *2476:A 0
66 *203:192 *280:14 0.000173468
67 *203:205 *280:14 0.000437201
68 *203:212 *280:14 0.000282611
69 spine_top_iw[11] *2468:A 4.5534e-05
70 spine_top_iw[15] *203:113 0
71 spine_top_iw[16] *203:113 0.000300841
72 spine_top_iw[16] *203:115 1.17968e-05
73 spine_top_iw[17] *203:113 0
74 spine_top_iw[5] *2468:A 0
75 spine_top_iw[9] *2468:A 0
76 *2394:A *203:10 0
77 *2479:A *2479:B 9.31011e-05
78 *2481:A *203:147 8.76257e-05
79 *2481:A *203:149 0.000142856
80 *2485:A *2477:B 2.14658e-05
81 *2485:A *2485:B 0.000144773
82 *2485:A *203:147 0.000219887
83 *2485:A *203:149 4.95365e-05
84 *2489:A *203:205 0.000100368
85 *2499:A *203:38 2.06653e-05
86 *2499:A *203:45 0.000101859
87 *2503:A *2503:B 5.49544e-05
88 *16:49 *203:145 5.31567e-06
89 *22:21 *203:82 0.000370603
90 *22:21 *203:91 0.000161975
91 *22:21 *203:102 0.00015721
92 *22:21 *203:109 0.000229355
93 *22:21 *203:192 0.00030455
94 *22:21 *203:205 0.000646758
95 *22:21 *203:212 0.00053418
*RES
1 *2548:X *203:10 26.6036 
2 *203:10 *2361:A 14.3357 
3 *203:10 *203:21 9.53571 
4 *203:21 *2503:B 15.5857 
5 *203:21 *203:38 7.58929 
6 *203:38 *2501:B 9.3 
7 *203:38 *203:45 2.58929 
8 *203:45 *2499:B 9.3 
9 *203:45 *203:60 18 
10 *203:60 *2497:B 9.3 
11 *203:60 *2495:B 23.1393 
12 *203:60 *203:82 7.53571 
13 *203:82 *2493:B 9.72857 
14 *203:82 *203:91 3 
15 *203:91 *2491:B 9.72857 
16 *203:91 *203:102 3.42857 
17 *203:102 *2489:B 9.3 
18 *203:102 *203:109 2.17857 
19 *203:109 *203:113 16.1607 
20 *203:113 *203:115 4.98214 
21 *203:115 *203:125 11.3214 
22 *203:125 *2473:B 13.5679 
23 *203:125 *2475:B 9.3 
24 *203:115 *203:145 4.92857 
25 *203:145 *203:147 4.64286 
26 *203:147 *203:149 2.17857 
27 *203:149 *2485:B 11.4786 
28 *203:149 *2483:B 20.55 
29 *203:147 *2481:B 9.3 
30 *203:145 *2477:B 9.83571 
31 *203:113 *2479:B 16.8179 
32 *203:109 *203:192 3 
33 *203:192 *2487:B 9.3 
34 *203:192 *203:205 7.67857 
35 *203:205 *2471:B 9.3 
36 *203:205 *203:212 5.05357 
37 *203:212 *2468:A 26.2821 
38 *203:212 *2469:B 9.3 
*END

*D_NET *204 0.000249649
*CONN
*I *2470:A I *D sky130_fd_sc_hd__buf_8
*I *2469:X O *D sky130_fd_sc_hd__and2_2
*CAP
1 *2470:A 8.39069e-05
2 *2469:X 8.39069e-05
3 *2470:A *2472:A 0
4 *2468:A *2470:A 8.1835e-05
*RES
1 *2469:X *2470:A 29.5464 
*END

*D_NET *205 0.00058947
*CONN
*I *2472:A I *D sky130_fd_sc_hd__buf_8
*I *2471:X O *D sky130_fd_sc_hd__and2_2
*CAP
1 *2472:A 0.000184405
2 *2471:X 0.000184405
3 *2472:A *280:14 0.000141131
4 spine_top_iw[9] *2472:A 7.9529e-05
5 *2470:A *2472:A 0
*RES
1 *2471:X *2472:A 30.9036 
*END

*D_NET *206 0.00121712
*CONN
*I *2474:A I *D sky130_fd_sc_hd__buf_8
*I *2473:X O *D sky130_fd_sc_hd__and2_2
*CAP
1 *2474:A 0.000453319
2 *2473:X 0.000453319
3 *2473:A *2474:A 5.30637e-06
4 *2473:B *2474:A 2.72859e-05
5 *199:21 *2474:A 0.000277885
6 *200:19 *2474:A 0
*RES
1 *2473:X *2474:A 36.1714 
*END

*D_NET *207 0.000497206
*CONN
*I *2476:A I *D sky130_fd_sc_hd__buf_8
*I *2475:X O *D sky130_fd_sc_hd__and2_2
*CAP
1 *2476:A 0.000248603
2 *2475:X 0.000248603
3 spine_top_iw[14] *2476:A 0
4 *199:21 *2476:A 0
5 *203:115 *2476:A 0
6 *203:125 *2476:A 0
*RES
1 *2475:X *2476:A 31.6714 
*END

*D_NET *208 0.000819518
*CONN
*I *2478:A I *D sky130_fd_sc_hd__buf_8
*I *2477:X O *D sky130_fd_sc_hd__and2_2
*CAP
1 *2478:A 0.000129852
2 *2477:X 0.000129852
3 spine_top_iw[16] *2478:A 0.000220455
4 *203:115 *2478:A 0.000339359
*RES
1 *2477:X *2478:A 31.975 
*END

*D_NET *209 0.000229062
*CONN
*I *2480:A I *D sky130_fd_sc_hd__buf_8
*I *2479:X O *D sky130_fd_sc_hd__and2_2
*CAP
1 *2480:A 0.000114531
2 *2479:X 0.000114531
3 *2480:A *2482:A 0
4 spine_top_iw[16] *2480:A 0
*RES
1 *2479:X *2480:A 29.5464 
*END

*D_NET *210 0.0011506
*CONN
*I *2482:A I *D sky130_fd_sc_hd__buf_8
*I *2481:X O *D sky130_fd_sc_hd__and2_2
*CAP
1 *2482:A 0.000450242
2 *2481:X 0.000450242
3 *2482:A *2484:A 0
4 *2482:A *2486:A 0
5 spine_top_iw[18] *2482:A 0.000202128
6 spine_top_iw[19] *2482:A 0
7 *2480:A *2482:A 0
8 *2483:B *2482:A 4.79842e-05
*RES
1 *2481:X *2482:A 36.8321 
*END

*D_NET *211 0.000572391
*CONN
*I *2484:A I *D sky130_fd_sc_hd__buf_8
*I *2483:X O *D sky130_fd_sc_hd__and2_2
*CAP
1 *2484:A 0.00018392
2 *2483:X 0.00018392
3 *2484:A *2486:A 0
4 spine_top_iw[19] *2484:A 0.00020455
5 *2482:A *2484:A 0
*RES
1 *2483:X *2484:A 31.6714 
*END

*D_NET *212 0.000492456
*CONN
*I *2486:A I *D sky130_fd_sc_hd__buf_8
*I *2485:X O *D sky130_fd_sc_hd__and2_2
*CAP
1 *2486:A 0.000246228
2 *2485:X 0.000246228
3 *2482:A *2486:A 0
4 *2483:B *2486:A 0
5 *2484:A *2486:A 0
*RES
1 *2485:X *2486:A 31.975 
*END

*D_NET *213 0.000510084
*CONN
*I *2488:A I *D sky130_fd_sc_hd__buf_8
*I *2487:X O *D sky130_fd_sc_hd__and2_2
*CAP
1 *2488:A 0.000207647
2 *2487:X 0.000207647
3 *2488:A *2490:A 0
4 spine_top_iw[21] *2488:A 9.47909e-05
*RES
1 *2487:X *2488:A 31.6714 
*END

*D_NET *214 0.000554084
*CONN
*I *2490:A I *D sky130_fd_sc_hd__buf_8
*I *2489:X O *D sky130_fd_sc_hd__and2_2
*CAP
1 *2490:A 0.000205005
2 *2489:X 0.000205005
3 *2490:A *2492:A 0
4 *2490:A *280:14 0.000144074
5 spine_top_iw[17] *2490:A 0
6 spine_top_iw[21] *2490:A 0
7 spine_top_iw[22] *2490:A 0
8 *2488:A *2490:A 0
*RES
1 *2489:X *2490:A 30.9036 
*END

*D_NET *215 0.000252989
*CONN
*I *2492:A I *D sky130_fd_sc_hd__buf_8
*I *2491:X O *D sky130_fd_sc_hd__and2_2
*CAP
1 *2492:A 8.45423e-05
2 *2491:X 8.45423e-05
3 *2492:A *2494:A 0
4 spine_top_iw[17] *2492:A 3.454e-05
5 spine_top_iw[18] *2492:A 3.15196e-05
6 spine_top_iw[22] *2492:A 1.7845e-05
7 *2490:A *2492:A 0
*RES
1 *2491:X *2492:A 29.5464 
*END

*D_NET *216 0.000358525
*CONN
*I *2494:A I *D sky130_fd_sc_hd__buf_8
*I *2493:X O *D sky130_fd_sc_hd__and2_2
*CAP
1 *2494:A 0.000179262
2 *2493:X 0.000179262
3 spine_top_iw[18] *2494:A 0
4 spine_top_iw[24] *2494:A 0
5 *2492:A *2494:A 0
*RES
1 *2493:X *2494:A 30.4929 
*END

*D_NET *217 0.00021614
*CONN
*I *2496:A I *D sky130_fd_sc_hd__buf_8
*I *2495:X O *D sky130_fd_sc_hd__and2_2
*CAP
1 *2496:A 0.00010807
2 *2495:X 0.00010807
3 spine_top_iw[24] *2496:A 0
4 *2495:B *2496:A 0
*RES
1 *2495:X *2496:A 29.2429 
*END

*D_NET *218 0.000220371
*CONN
*I *2498:A I *D sky130_fd_sc_hd__buf_8
*I *2497:X O *D sky130_fd_sc_hd__and2_2
*CAP
1 *2498:A 0.000104215
2 *2497:X 0.000104215
3 spine_top_iw[25] *2498:A 1.19416e-05
4 spine_top_iw[26] *2498:A 0
*RES
1 *2497:X *2498:A 29.5464 
*END

*D_NET *219 0.000533495
*CONN
*I *2500:A I *D sky130_fd_sc_hd__buf_8
*I *2499:X O *D sky130_fd_sc_hd__and2_2
*CAP
1 *2500:A 0.000209432
2 *2499:X 0.000209432
3 *2500:A *2502:A 0
4 *2500:A *280:14 9.90431e-05
5 spine_top_iw[26] *2500:A 0
6 *203:60 *2500:A 1.55885e-05
*RES
1 *2499:X *2500:A 30.9036 
*END

*D_NET *220 0.00128976
*CONN
*I *2502:A I *D sky130_fd_sc_hd__buf_8
*I *2501:X O *D sky130_fd_sc_hd__and2_2
*CAP
1 *2502:A 0.000455795
2 *2501:X 0.000455795
3 *2502:A *2504:A 7.33405e-05
4 spine_top_iw[26] *2502:A 0
5 spine_top_iw[28] *2502:A 0.000153047
6 *2499:A *2502:A 9.99853e-05
7 *2500:A *2502:A 0
8 *203:45 *2502:A 2.90548e-05
9 *203:60 *2502:A 2.27416e-05
*RES
1 *2501:X *2502:A 35.6179 
*END

*D_NET *221 0.000932154
*CONN
*I *2504:A I *D sky130_fd_sc_hd__buf_8
*I *2503:X O *D sky130_fd_sc_hd__and2_2
*CAP
1 *2504:A 0.000401109
2 *2503:X 0.000401109
3 *2504:A *282:8 5.65955e-05
4 *2502:A *2504:A 7.33405e-05
5 *203:38 *2504:A 0
*RES
1 *2503:X *2504:A 34.2786 
*END

*D_NET *224 0.00194834
*CONN
*I *2535:CLK I *D sky130_fd_sc_hd__dfrbp_2
*I *2534:D I *D sky130_fd_sc_hd__dfrbp_2
*I *2534:Q_N O *D sky130_fd_sc_hd__dfrbp_2
*CAP
1 *2535:CLK 0.000271037
2 *2534:D 3.85441e-05
3 *2534:Q_N 0.000181358
4 *224:8 0.000490939
5 spine_bot_iw[10] *2535:CLK 0.00011549
6 spine_bot_iw[12] *2535:CLK 0
7 spine_bot_iw[8] *2535:CLK 0
8 spine_bot_iw[9] *2535:CLK 0
9 *2534:RESET_B *224:8 8.79458e-05
10 *11:27 *2534:D 7.47019e-05
11 *11:27 *224:8 0.00023565
12 *12:19 *2534:D 0.000101431
13 *12:19 *224:8 0.000351242
*RES
1 *2534:Q_N *224:8 16.0143 
2 *224:8 *2534:D 11.0679 
3 *224:8 *2535:CLK 22.9786 
*END

*D_NET *225 0.00215883
*CONN
*I *2535:D I *D sky130_fd_sc_hd__dfrbp_2
*I *2536:CLK I *D sky130_fd_sc_hd__dfrbp_2
*I *2535:Q_N O *D sky130_fd_sc_hd__dfrbp_2
*CAP
1 *2535:D 0
2 *2536:CLK 0.000237443
3 *2535:Q_N 0.0005365
4 *225:8 0.000773943
5 *2536:CLK *2537:CLK 6.81814e-05
6 *2536:CLK *226:6 2.65115e-05
7 spine_bot_iw[10] *2536:CLK 0
8 spine_bot_iw[9] *2536:CLK 0.000395427
9 *2424:A *2536:CLK 7.58571e-05
10 *193:8 *225:8 4.49693e-05
*RES
1 *2535:Q_N *225:8 17.6571 
2 *225:8 *2536:CLK 25.05 
3 *225:8 *2535:D 9.3 
*END

*D_NET *226 0.00262497
*CONN
*I *2536:D I *D sky130_fd_sc_hd__dfrbp_2
*I *2537:CLK I *D sky130_fd_sc_hd__dfrbp_2
*I *2536:Q_N O *D sky130_fd_sc_hd__dfrbp_2
*CAP
1 *2536:D 0
2 *2537:CLK 0.000469724
3 *2536:Q_N 0.000725997
4 *226:6 0.00119572
5 *2537:CLK *2538:CLK 1.38247e-05
6 spine_bot_iw[10] *2537:CLK 0
7 *2536:CLK *2537:CLK 6.81814e-05
8 *2536:CLK *226:6 2.65115e-05
9 *173:107 *2537:CLK 0.00012501
*RES
1 *2536:Q_N *226:6 17.242 
2 *226:6 *2537:CLK 25.2866 
3 *226:6 *2536:D 9.3 
*END

*D_NET *227 0.00303733
*CONN
*I *2537:D I *D sky130_fd_sc_hd__dfrbp_2
*I *2538:CLK I *D sky130_fd_sc_hd__dfrbp_2
*I *2537:Q_N O *D sky130_fd_sc_hd__dfrbp_2
*CAP
1 *2537:D 0
2 *2538:CLK 0.000492324
3 *2537:Q_N 0.000634148
4 *227:14 0.00112647
5 *2538:CLK *2539:CLK 5.76121e-05
6 *2538:CLK *228:8 1.21289e-05
7 spine_bot_iw[10] *2538:CLK 0.000183139
8 *2537:CLK *2538:CLK 1.38247e-05
9 *2538:RESET_B *2538:CLK 0.00014285
10 *21:64 *2538:CLK 2.89114e-05
11 *21:64 *227:14 0.00032738
12 *173:107 *227:14 1.85392e-05
*RES
1 *2537:Q_N *227:14 18.6393 
2 *227:14 *2538:CLK 27.2464 
3 *227:14 *2537:D 9.3 
*END

*D_NET *228 0.00309611
*CONN
*I *2538:D I *D sky130_fd_sc_hd__dfrbp_2
*I *2539:CLK I *D sky130_fd_sc_hd__dfrbp_2
*I *2538:Q_N O *D sky130_fd_sc_hd__dfrbp_2
*CAP
1 *2538:D 0
2 *2539:CLK 0.00084458
3 *2538:Q_N 0.000443044
4 *228:8 0.00128762
5 *2538:CLK *2539:CLK 5.76121e-05
6 *2538:CLK *228:8 1.21289e-05
7 *2538:RESET_B *228:8 9.84891e-05
8 *2540:RESET_B *2539:CLK 0.000102197
9 *164:89 *228:8 0.000220865
10 *196:8 *228:8 2.95726e-05
*RES
1 *2538:Q_N *228:8 17.6571 
2 *228:8 *2539:CLK 24.2107 
3 *228:8 *2538:D 9.3 
*END

*D_NET *229 0.00161275
*CONN
*I *2539:D I *D sky130_fd_sc_hd__dfrbp_2
*I *2540:CLK I *D sky130_fd_sc_hd__dfrbp_2
*I *2539:Q_N O *D sky130_fd_sc_hd__dfrbp_2
*CAP
1 *2539:D 2.28706e-05
2 *2540:CLK 0.000259186
3 *2539:Q_N 0.000408417
4 *229:8 0.000690473
5 *229:8 *230:8 5.62995e-05
6 *2539:RESET_B *229:8 4.96254e-05
7 *2540:RESET_B *2539:D 2.44318e-05
8 *2540:RESET_B *2540:CLK 0
9 *2540:RESET_B *229:8 0.000101445
*RES
1 *2539:Q_N *229:8 17.2464 
2 *229:8 *2540:CLK 22.9786 
3 *229:8 *2539:D 9.83571 
*END

*D_NET *230 0.00234063
*CONN
*I *2549:A I *D sky130_fd_sc_hd__buf_8
*I *2547:A I *D sky130_fd_sc_hd__and2_2
*I *2546:A I *D sky130_fd_sc_hd__inv_2
*I *2539:Q O *D sky130_fd_sc_hd__dfrbp_2
*CAP
1 *2549:A 2.22847e-05
2 *2547:A 0.000108952
3 *2546:A 9.94663e-05
4 *2539:Q 0.000637604
5 *230:12 0.000409028
6 *230:8 0.000860498
7 *2546:A *2690:S 0
8 *2547:A *237:14 1.99099e-05
9 *2547:B *2546:A 4.35141e-05
10 *2547:B *2547:A 8.30773e-05
11 *229:8 *230:8 5.62995e-05
*RES
1 *2539:Q *230:8 19.3 
2 *230:8 *230:12 7.5 
3 *230:12 *2546:A 15.7464 
4 *230:12 *2547:A 16.6571 
5 *230:8 *2549:A 9.72857 
*END

*D_NET *231 0.00143228
*CONN
*I *2541:CLK I *D sky130_fd_sc_hd__dfrbp_2
*I *2540:D I *D sky130_fd_sc_hd__dfrbp_2
*I *2540:Q_N O *D sky130_fd_sc_hd__dfrbp_2
*CAP
1 *2541:CLK 8.55253e-05
2 *2540:D 0.000291504
3 *2540:Q_N 0.00017498
4 *231:8 0.000552009
5 *2541:CLK *2542:CLK 0
6 *14:34 *2541:CLK 0.000177948
7 *164:39 *231:8 0.000150309
*RES
1 *2540:Q_N *231:8 13.1393 
2 *231:8 *2540:D 13.9429 
3 *231:8 *2541:CLK 20.55 
*END

*D_NET *232 0.00157367
*CONN
*I *2542:CLK I *D sky130_fd_sc_hd__dfrbp_2
*I *2541:D I *D sky130_fd_sc_hd__dfrbp_2
*I *2541:Q_N O *D sky130_fd_sc_hd__dfrbp_2
*CAP
1 *2542:CLK 0.000271774
2 *2541:D 0.000156963
3 *2541:Q_N 0.00033801
4 *232:8 0.000766747
5 *2542:CLK *2543:CLK 0
6 *2541:CLK *2542:CLK 0
7 *2541:RESET_B *2542:CLK 0
8 *14:34 *2542:CLK 0
9 *198:8 *232:8 4.01768e-05
*RES
1 *2541:Q_N *232:8 15.1929 
2 *232:8 *2541:D 11.8893 
3 *232:8 *2542:CLK 23.2821 
*END

*D_NET *233 0.00133152
*CONN
*I *2543:CLK I *D sky130_fd_sc_hd__dfrbp_2
*I *2542:D I *D sky130_fd_sc_hd__dfrbp_2
*I *2542:Q_N O *D sky130_fd_sc_hd__dfrbp_2
*CAP
1 *2543:CLK 0.000125234
2 *2542:D 0.000135049
3 *2542:Q_N 0.00038067
4 *233:8 0.000640953
5 *2542:CLK *2543:CLK 0
6 *2542:RESET_B *2543:CLK 0
7 *2542:RESET_B *233:8 4.96155e-05
*RES
1 *2542:Q_N *233:8 15.6036 
2 *233:8 *2542:D 11.4786 
3 *233:8 *2543:CLK 20.55 
*END

*D_NET *234 0.00107118
*CONN
*I *2543:D I *D sky130_fd_sc_hd__dfrbp_2
*I *2543:Q_N O *D sky130_fd_sc_hd__dfrbp_2
*CAP
1 *2543:D 0.00053559
2 *2543:Q_N 0.00053559
*RES
1 *2543:Q_N *2543:D 26.9571 
*END

*D_NET *235 0.000195948
*CONN
*I *2544:A I *D sky130_fd_sc_hd__and2_2
*I *2546:Y O *D sky130_fd_sc_hd__inv_2
*CAP
1 *2544:A 5.48328e-05
2 *2546:Y 5.48328e-05
3 *2544:A *2545:A 6.05161e-06
4 *2544:B *2544:A 8.02307e-05
*RES
1 *2546:Y *2544:A 19.9571 
*END

*D_NET *236 0.000563149
*CONN
*I *2545:A I *D sky130_fd_sc_hd__buf_8
*I *2544:X O *D sky130_fd_sc_hd__and2_2
*CAP
1 *2545:A 0.000268484
2 *2544:X 0.000268484
3 *2545:A *2690:S 0
4 *2544:A *2545:A 6.05161e-06
5 *2544:B *2545:A 2.01287e-05
*RES
1 *2544:X *2545:A 31.3143 
*END

*D_NET *237 0.00443109
*CONN
*I *2548:A I *D sky130_fd_sc_hd__buf_8
*I *2547:X O *D sky130_fd_sc_hd__and2_2
*CAP
1 *2548:A 0
2 *2547:X 6.81387e-05
3 *237:14 0.00213443
4 *237:8 0.00220256
5 *237:14 *238:12 0
6 *2547:A *237:14 1.99099e-05
7 *2547:B *237:8 6.05161e-06
8 *2547:B *237:14 0
*RES
1 *2547:X *237:8 14.7464 
2 *237:8 *237:14 43.125 
3 *237:14 *2548:A 9.3 
*END

*D_NET *238 0.0362863
*CONN
*I *2690:S I *D sky130_fd_sc_hd__mux2_2
*I *2651:S I *D sky130_fd_sc_hd__mux2_2
*I *2652:S I *D sky130_fd_sc_hd__mux2_2
*I *2684:S I *D sky130_fd_sc_hd__mux2_2
*I *2687:S I *D sky130_fd_sc_hd__mux2_2
*I *2685:S I *D sky130_fd_sc_hd__mux2_2
*I *2686:S I *D sky130_fd_sc_hd__mux2_2
*I *2683:S I *D sky130_fd_sc_hd__mux2_2
*I *2688:S I *D sky130_fd_sc_hd__mux2_2
*I *2653:S I *D sky130_fd_sc_hd__mux2_2
*I *2619:S I *D sky130_fd_sc_hd__mux2_2
*I *2620:S I *D sky130_fd_sc_hd__mux2_2
*I *2655:S I *D sky130_fd_sc_hd__mux2_2
*I *2621:S I *D sky130_fd_sc_hd__mux2_2
*I *2622:S I *D sky130_fd_sc_hd__mux2_2
*I *2623:S I *D sky130_fd_sc_hd__mux2_2
*I *2626:S I *D sky130_fd_sc_hd__mux2_2
*I *2656:S I *D sky130_fd_sc_hd__mux2_2
*I *2624:S I *D sky130_fd_sc_hd__mux2_2
*I *2625:S I *D sky130_fd_sc_hd__mux2_2
*I *2658:S I *D sky130_fd_sc_hd__mux2_2
*I *2657:S I *D sky130_fd_sc_hd__mux2_2
*I *2654:S I *D sky130_fd_sc_hd__mux2_2
*I *2689:S I *D sky130_fd_sc_hd__mux2_2
*I *2549:X O *D sky130_fd_sc_hd__buf_8
*CAP
1 *2690:S 0.00138748
2 *2651:S 0
3 *2652:S 0.000178324
4 *2684:S 0
5 *2687:S 0.000211541
6 *2685:S 0
7 *2686:S 0.000323978
8 *2683:S 2.23854e-05
9 *2688:S 0
10 *2653:S 0
11 *2619:S 0
12 *2620:S 0
13 *2655:S 0.00037055
14 *2621:S 0.000119151
15 *2622:S 0
16 *2623:S 0.000211515
17 *2626:S 0.000172517
18 *2656:S 0.000508215
19 *2624:S 6.5109e-05
20 *2625:S 4.74176e-05
21 *2658:S 0
22 *2657:S 0
23 *2654:S 0
24 *2689:S 0
25 *2549:X 6.9001e-05
26 *238:267 0.000428386
27 *238:248 0.000453967
28 *238:228 0.000277988
29 *238:224 0.00036503
30 *238:213 0.00052162
31 *238:141 0.000804153
32 *238:139 0.000420122
33 *238:126 0.000612496
34 *238:124 0.000524197
35 *238:122 0.000847059
36 *238:100 0.000241742
37 *238:91 0.000253322
38 *238:78 0.000319077
39 *238:76 0.000460098
40 *238:74 0.000469444
41 *238:51 0.00052917
42 *238:45 0.000420729
43 *238:32 0.000746197
44 *238:22 0.0010988
45 *238:16 0.000684891
46 *238:12 0.00194472
47 *238:10 0.00192644
48 *238:6 0.00157944
49 *2621:S *2694:A 9.90431e-05
50 *2621:S *306:20 3.1889e-05
51 *2623:S *2623:A0 1.02504e-05
52 *2623:S *2623:A1 7.83587e-05
53 *2623:S *2631:A 0
54 *2623:S *2658:A0 0.000199783
55 *2623:S *308:12 0
56 *2624:S *2625:A1 1.52978e-05
57 *2624:S *250:12 0.000148196
58 *2625:S *2625:A1 0.000182868
59 *2625:S *2666:A 7.62318e-05
60 *2626:S *2696:A 0.00018372
61 *2652:S *2651:A0 3.47641e-06
62 *2652:S *2651:A1 3.92757e-05
63 *2652:S *270:14 0
64 *2652:S *281:12 2.41649e-05
65 *2655:S *309:16 0.000837131
66 *2656:S *2620:A0 0
67 *2656:S *2622:A0 0.000505342
68 *2656:S *2656:A0 5.71472e-05
69 *2656:S *2656:A1 3.18676e-05
70 *2656:S *2664:A 7.77751e-05
71 *2686:S *2683:A1 0.000137983
72 *2686:S *2686:A0 2.89016e-05
73 *2687:S *2685:A1 3.18676e-05
74 *2687:S *2687:A1 4.43256e-05
75 *2687:S *258:6 0.000611466
76 *2690:S *2690:A1 0.000139907
77 *238:22 *2688:A0 0.000170385
78 *238:22 *303:12 0.00016914
79 *238:32 *2653:A0 0
80 *238:32 *2688:A0 0.000144773
81 *238:32 *2688:A1 4.15914e-05
82 *238:32 *2689:A0 0.000449248
83 *238:32 *2689:A1 3.17148e-05
84 *238:32 *307:10 3.57163e-05
85 *238:45 *2653:A0 0.000197623
86 *238:45 *2689:A1 5.33005e-05
87 *238:45 *304:24 3.92757e-05
88 *238:51 *2653:A0 5.33005e-05
89 *238:51 *304:24 0.000263916
90 *238:74 *304:24 1.21289e-05
91 *238:74 *304:32 0.000317191
92 *238:76 *2620:A0 9.90367e-05
93 *238:76 *304:32 0.000178943
94 *238:78 *304:32 0.000439971
95 *238:91 *2658:A0 0.000359152
96 *238:91 *2658:A1 0.000104169
97 *238:91 *2665:A 2.19064e-05
98 *238:91 *304:32 0.000166782
99 *238:100 *2625:A1 9.71197e-05
100 *238:100 *2658:A0 3.03071e-05
101 *238:100 *2658:A1 2.59355e-05
102 *238:122 *2620:A0 0
103 *238:124 *2620:A0 0
104 *238:124 *2621:A0 2.88424e-05
105 *238:124 *2621:A1 0
106 *238:126 *2621:A0 4.43698e-05
107 *238:126 *2622:A0 9.25014e-06
108 *238:228 *2684:A0 1.55885e-05
109 *238:228 *258:6 0.000227532
110 *238:248 *2651:A0 0
111 *238:248 *2684:A0 6.22145e-05
112 *238:267 *2651:A0 0
113 *238:267 *279:8 9.90367e-05
114 *238:267 *281:12 0.0001865
115 spine_top_ow[3] *238:248 0.000148196
116 spine_top_ow[3] *238:267 6.01774e-05
117 spine_top_ow[8] *238:32 0.000232076
118 spine_top_ow[8] *238:45 4.60232e-06
119 *2395:A *238:248 0.000200406
120 *2406:A *238:248 0.000325958
121 *2406:A *238:267 3.51442e-05
122 *2407:TE_B *238:141 0.000138881
123 *2503:A *2652:S 5.49544e-05
124 *2503:A *238:51 0.00022266
125 *2503:A *238:267 0.000310068
126 *2545:A *2690:S 0
127 *2546:A *2690:S 0
128 *2547:B *2690:S 0.000126446
129 *2547:B *238:12 0
130 *2570:DIODE *238:267 0
131 *2572:DIODE *238:16 9.71197e-05
132 *2572:DIODE *238:22 1.24368e-05
133 *2605:A *238:124 0
134 *2605:A *238:126 0
135 *2605:A *238:141 0.00010096
136 *2611:A *2656:S 0
137 *2612:A *2656:S 5.80706e-06
138 *2638:A *238:74 0.000142856
139 *2649:A *2652:S 3.34366e-05
140 *2667:A *238:12 5.5782e-05
141 *2669:A *2687:S 0.00014183
142 *2670:A *2687:S 0.00014183
143 *2674:A *238:213 6.19181e-05
144 *2674:A *238:224 0.000113877
145 *2674:A *238:228 5.52302e-05
146 *2674:A *238:248 1.08359e-05
147 *2675:A *2686:S 9.90431e-05
148 *2681:A *238:224 0
149 *23:13 *2624:S 3.97543e-05
150 *23:15 *2623:S 0
151 *23:30 *2690:S 0.0017783
152 *23:55 *238:74 0.000458639
153 *23:55 *238:76 0.000238208
154 *23:55 *238:78 0.000446023
155 *23:55 *238:91 3.80079e-05
156 *23:55 *238:100 1.21258e-05
157 *25:34 *238:45 2.51343e-06
158 *98:26 *2690:S 0
159 *98:26 *238:12 0.00204485
160 *98:26 *238:213 1.08359e-05
161 *146:8 *238:124 0
162 *146:19 *238:122 0
163 *146:19 *238:124 0
164 *155:10 *238:248 0.000151333
165 *162:12 *2690:S 0
166 *170:10 *238:224 6.26466e-05
167 *170:10 *238:248 2.8266e-06
168 *170:19 *238:248 4.98055e-06
169 *170:48 *2687:S 5.71472e-05
170 *170:62 *238:45 0
171 *171:6 *2626:S 0.000144773
172 *171:15 *2626:S 2.14658e-05
173 *171:15 *238:141 0.000290226
174 *171:132 *238:141 0.000160621
175 *171:171 *2652:S 0
176 *237:14 *238:12 0
*RES
1 *2549:X *238:6 10.2464 
2 *238:6 *238:10 6.26786 
3 *238:10 *238:12 46.875 
4 *238:12 *238:16 5.44643 
5 *238:16 *238:22 10.9464 
6 *238:22 *238:32 21.8393 
7 *238:32 *2689:S 9.3 
8 *238:32 *238:45 14.0357 
9 *238:45 *238:51 4.375 
10 *238:51 *2654:S 9.3 
11 *238:51 *238:74 10.2679 
12 *238:74 *238:76 4.23214 
13 *238:76 *238:78 7.92857 
14 *238:78 *2657:S 9.3 
15 *238:78 *238:91 5.625 
16 *238:91 *2658:S 9.3 
17 *238:91 *238:100 2.60714 
18 *238:100 *2625:S 11.0679 
19 *238:100 *2624:S 20.2464 
20 *238:76 *238:122 7.35714 
21 *238:122 *238:124 5.28571 
22 *238:124 *238:126 1.94643 
23 *238:126 *2656:S 25.0321 
24 *238:126 *238:139 4.5 
25 *238:139 *238:141 9.98214 
26 *238:141 *2626:S 13.1214 
27 *238:141 *2623:S 23.2821 
28 *238:139 *2622:S 9.3 
29 *238:124 *2621:S 15.5857 
30 *238:122 *2655:S 21.7286 
31 *238:76 *2620:S 9.3 
32 *238:74 *2619:S 9.3 
33 *238:45 *2653:S 9.3 
34 *238:22 *2688:S 9.3 
35 *238:16 *2683:S 9.72857 
36 *238:12 *238:213 1.94643 
37 *238:213 *2686:S 19.2643 
38 *238:213 *238:224 2.85714 
39 *238:224 *238:228 6.67857 
40 *238:228 *2685:S 9.3 
41 *238:228 *2687:S 16.9786 
42 *238:224 *238:248 7.10714 
43 *238:248 *2684:S 13.8 
44 *238:248 *238:267 11.75 
45 *238:267 *2652:S 21.6929 
46 *238:267 *2651:S 9.3 
47 *238:6 *2690:S 46.6214 
*END

*D_NET *239 0.00364757
*CONN
*I *2619:A0 I *D sky130_fd_sc_hd__mux2_2
*I *2603:X O *D sky130_fd_sc_hd__buf_2
*CAP
1 *2619:A0 0
2 *2603:X 0.00142951
3 *239:12 0.00142951
4 *239:12 *2620:A0 0
5 *239:12 *2656:A0 0.000141113
6 *239:12 *2656:A1 0.000202842
7 *239:12 *255:18 0
8 *239:12 *256:18 0
9 *239:12 *304:24 0
10 spine_top_ow[14] *239:12 0.000102854
11 *2555:DIODE *239:12 1.92905e-05
12 *2584:DIODE *239:12 0
13 *2645:A *239:12 0
14 *2646:A *239:12 0.000322453
15 *84:22 *239:12 0
*RES
1 *2603:X *239:12 45.175 
2 *239:12 *2619:A0 9.3 
*END

*D_NET *240 0.000503416
*CONN
*I *2621:A1 I *D sky130_fd_sc_hd__mux2_2
*I *2604:X O *D sky130_fd_sc_hd__buf_2
*CAP
1 *2621:A1 0.000122769
2 *2604:X 0.000122769
3 *2621:A1 *2620:A0 0.000173083
4 *2621:A1 *2621:A0 5.58941e-05
5 *2621:A1 *305:12 2.89016e-05
6 *238:124 *2621:A1 0
*RES
1 *2604:X *2621:A1 30.3857 
*END

*D_NET *241 0.000429139
*CONN
*I *2622:A1 I *D sky130_fd_sc_hd__mux2_2
*I *2605:X O *D sky130_fd_sc_hd__buf_2
*CAP
1 *2622:A1 0.000121748
2 *2605:X 0.000121748
3 *171:132 *2622:A1 0.000185643
*RES
1 *2605:X *2622:A1 20.3679 
*END

*D_NET *242 0.000419208
*CONN
*I *2623:A1 I *D sky130_fd_sc_hd__mux2_2
*I *2606:X O *D sky130_fd_sc_hd__buf_2
*CAP
1 *2623:A1 0.000109543
2 *2606:X 0.000109543
3 *2623:A1 *2631:A 2.56694e-05
4 *2623:A1 *303:18 9.60939e-05
5 *2623:S *2623:A1 7.83587e-05
*RES
1 *2606:X *2623:A1 29.5821 
*END

*D_NET *243 0.000372202
*CONN
*I *2624:A1 I *D sky130_fd_sc_hd__mux2_2
*I *2607:X O *D sky130_fd_sc_hd__buf_2
*CAP
1 *2624:A1 0.000138754
2 *2607:X 0.000138754
3 *24:36 *2624:A1 9.46929e-05
*RES
1 *2607:X *2624:A1 20.3679 
*END

*D_NET *244 0.000991248
*CONN
*I *2625:A1 I *D sky130_fd_sc_hd__mux2_2
*I *2608:X O *D sky130_fd_sc_hd__buf_2
*CAP
1 *2625:A1 0.000228337
2 *2608:X 0.000228337
3 *2625:A1 *2666:A 1.39841e-05
4 *2625:A1 *250:12 4.97918e-05
5 *2624:S *2625:A1 1.52978e-05
6 *2625:S *2625:A1 0.000182868
7 *23:13 *2625:A1 9.54313e-05
8 *23:15 *2625:A1 8.00806e-05
9 *238:100 *2625:A1 9.71197e-05
*RES
1 *2608:X *2625:A1 32.85 
*END

*D_NET *245 0.00014963
*CONN
*I *2626:A1 I *D sky130_fd_sc_hd__mux2_2
*I *2609:X O *D sky130_fd_sc_hd__buf_2
*CAP
1 *2626:A1 3.32238e-05
2 *2609:X 3.32238e-05
3 *2626:A1 *250:12 4.15914e-05
4 *23:15 *2626:A1 4.15914e-05
*RES
1 *2609:X *2626:A1 28.6357 
*END

*D_NET *246 0.00296644
*CONN
*I *2620:A0 I *D sky130_fd_sc_hd__mux2_2
*I *2610:X O *D sky130_fd_sc_hd__buf_2
*CAP
1 *2620:A0 0.00114497
2 *2610:X 0.00114497
3 *2620:A0 *2621:A0 0.000249446
4 *2620:A0 *2622:A0 0
5 *2620:A0 *2656:A0 0
6 *2620:A0 *2656:A1 0
7 *2620:A0 *256:18 5.58941e-05
8 *2620:A0 *304:32 9.90367e-05
9 *2612:A *2620:A0 0
10 *2621:A1 *2620:A0 0.000173083
11 *2656:S *2620:A0 0
12 *146:19 *2620:A0 0
13 *238:76 *2620:A0 9.90367e-05
14 *238:122 *2620:A0 0
15 *238:124 *2620:A0 0
16 *239:12 *2620:A0 0
*RES
1 *2610:X *2620:A0 49.9214 
*END

*D_NET *247 0.00115662
*CONN
*I *2621:A0 I *D sky130_fd_sc_hd__mux2_2
*I *2611:X O *D sky130_fd_sc_hd__buf_2
*CAP
1 *2621:A0 0.000277594
2 *2611:X 0.000277594
3 *2621:A0 *2622:A0 0.000169581
4 *2621:A0 *306:20 5.33005e-05
5 *2620:A0 *2621:A0 0.000249446
6 *2621:A1 *2621:A0 5.58941e-05
7 *238:124 *2621:A0 2.88424e-05
8 *238:126 *2621:A0 4.43698e-05
*RES
1 *2611:X *2621:A0 34.9393 
*END

*D_NET *248 0.00123778
*CONN
*I *2622:A0 I *D sky130_fd_sc_hd__mux2_2
*I *2612:X O *D sky130_fd_sc_hd__buf_2
*CAP
1 *2622:A0 0.000249189
2 *2612:X 0.000249189
3 *2622:A0 *2664:A 5.52302e-05
4 *2620:A0 *2622:A0 0
5 *2621:A0 *2622:A0 0.000169581
6 *2656:S *2622:A0 0.000505342
7 *238:126 *2622:A0 9.25014e-06
*RES
1 *2612:X *2622:A0 34.6357 
*END

*D_NET *249 0.000893011
*CONN
*I *2623:A0 I *D sky130_fd_sc_hd__mux2_2
*I *2613:X O *D sky130_fd_sc_hd__buf_2
*CAP
1 *2623:A0 0.000321186
2 *2613:X 0.000321186
3 *2623:A0 *2658:A0 1.00375e-05
4 *2623:A0 *2664:A 0
5 *2614:A *2623:A0 0.000102197
6 *2615:A *2623:A0 0.000128154
7 *2623:S *2623:A0 1.02504e-05
8 *2648:A *2623:A0 0
9 *23:15 *2623:A0 0
*RES
1 *2613:X *2623:A0 33.4393 
*END

*D_NET *250 0.00351469
*CONN
*I *2624:A0 I *D sky130_fd_sc_hd__mux2_2
*I *2614:X O *D sky130_fd_sc_hd__buf_2
*CAP
1 *2624:A0 0
2 *2614:X 0.00113941
3 *250:12 0.00113941
4 *250:12 *2625:A0 0
5 *250:12 *2626:A0 0.000513623
6 pad_uio_oe_n[4] *250:12 0.000468634
7 *2566:DIODE *250:12 1.40415e-05
8 *2624:S *250:12 0.000148196
9 *2625:A1 *250:12 4.97918e-05
10 *2626:A1 *250:12 4.15914e-05
11 *23:13 *250:12 0
12 *23:15 *250:12 0
13 *24:13 *250:12 0
14 *24:15 *250:12 0
*RES
1 *2614:X *250:12 42.675 
2 *250:12 *2624:A0 9.3 
*END

*D_NET *251 0.00267009
*CONN
*I *2625:A0 I *D sky130_fd_sc_hd__mux2_2
*I *2615:X O *D sky130_fd_sc_hd__buf_2
*CAP
1 *2625:A0 0.00102222
2 *2615:X 0.00102222
3 *2625:A0 *2634:A 0.000222878
4 pad_uio_oe_n[4] *2625:A0 0.000351009
5 *2616:A *2625:A0 5.17614e-05
6 *24:15 *2625:A0 0
7 *250:12 *2625:A0 0
*RES
1 *2615:X *2625:A0 47.9393 
*END

*D_NET *252 0.00103054
*CONN
*I *2626:A0 I *D sky130_fd_sc_hd__mux2_2
*I *2616:X O *D sky130_fd_sc_hd__buf_2
*CAP
1 *2626:A0 0.000163665
2 *2616:X 0.000163665
3 *23:15 *2626:A0 0.000189584
4 *250:12 *2626:A0 0.000513623
*RES
1 *2616:X *2626:A0 34.1 
*END

*D_NET *253 0.000367181
*CONN
*I *2619:A1 I *D sky130_fd_sc_hd__mux2_2
*I *2617:X O *D sky130_fd_sc_hd__buf_2
*CAP
1 *2619:A1 0.000134072
2 *2617:X 0.000134072
3 *2619:A1 *2620:A1 0
4 *2638:A *2619:A1 0
5 *170:76 *2619:A1 9.90367e-05
*RES
1 *2617:X *2619:A1 29.5821 
*END

*D_NET *254 0.000800552
*CONN
*I *2620:A1 I *D sky130_fd_sc_hd__mux2_2
*I *2618:X O *D sky130_fd_sc_hd__buf_2
*CAP
1 *2620:A1 0.000308247
2 *2618:X 0.000308247
3 *2620:A1 *304:32 0.000144773
4 *2620:A1 *309:16 0
5 *2619:A1 *2620:A1 0
6 *24:36 *2620:A1 0
7 *144:22 *2620:A1 3.92854e-05
8 *146:19 *2620:A1 0
*RES
1 *2618:X *2620:A1 32.4214 
*END

*D_NET *255 0.0267539
*CONN
*I *2627:A I *D sky130_fd_sc_hd__bufinv_8
*I *2619:X O *D sky130_fd_sc_hd__mux2_2
*CAP
1 *2627:A 0
2 *2619:X 0.00529892
3 *255:18 0.00529892
4 *255:18 *2659:A 0.000207304
5 *255:18 *256:18 0.0095572
6 *255:18 *279:8 0.000232737
7 *255:18 *281:12 0.000355658
8 *255:18 *281:18 0.000233689
9 *255:18 *282:14 0.000122494
10 *255:18 *304:24 0.000130424
11 spine_top_ow[3] *255:18 4.66698e-05
12 spine_top_ow[4] *255:18 2.52259e-05
13 spine_top_ow[5] *255:18 2.85524e-05
14 spine_top_ow[6] *255:18 5.73086e-05
15 *2487:A *255:18 0.000268113
16 *2489:A *255:18 0
17 *2491:A *255:18 0.00396851
18 *2503:A *255:18 0.000233689
19 *9:43 *255:18 0.000120342
20 *19:9 *255:18 6.8293e-05
21 *20:11 *255:18 0.000499846
22 *239:12 *255:18 0
*RES
1 *2619:X *255:18 47.5287 
2 *255:18 *2627:A 9.3 
*END

*D_NET *256 0.0234549
*CONN
*I *2628:A I *D sky130_fd_sc_hd__bufinv_8
*I *2620:X O *D sky130_fd_sc_hd__mux2_2
*CAP
1 *2628:A 0.000218298
2 *2620:X 0.00548481
3 *256:18 0.00570311
4 *256:18 *2660:A 0
5 *256:18 *282:8 0.00032366
6 pad_uio_oe_n[2] *256:18 8.54239e-05
7 pad_uio_oe_n[3] *256:18 0
8 spine_top_iw[13] *256:18 0.000191859
9 spine_top_iw[17] *256:18 0
10 spine_top_iw[19] *256:18 5.11642e-05
11 spine_top_iw[21] *256:18 0
12 spine_top_iw[22] *256:18 0
13 spine_top_iw[24] *256:18 0
14 spine_top_iw[25] *256:18 0
15 spine_top_ow[13] *256:18 0
16 spine_top_ow[15] *256:18 0
17 spine_top_ow[1] *256:18 0
18 spine_top_ow[2] *256:18 0
19 spine_top_ow[7] *256:18 0
20 spine_top_ow[8] *256:18 0
21 spine_top_ow[9] *256:18 0
22 *2487:A *256:18 0.000439598
23 *2489:A *256:18 0.000987692
24 *2620:A0 *256:18 5.58941e-05
25 *9:43 *256:18 0.000122494
26 *20:45 *256:18 0.000233689
27 *146:19 *256:18 0
28 *239:12 *256:18 0
29 *255:18 *256:18 0.0095572
*RES
1 *2620:X *256:18 46.6639 
2 *256:18 *2628:A 12.7107 
*END

*D_NET *257 0.0133555
*CONN
*I *2629:A I *D sky130_fd_sc_hd__bufinv_8
*I *2621:X O *D sky130_fd_sc_hd__mux2_2
*CAP
1 *2629:A 0.00052874
2 *2621:X 0
3 *257:6 0.00530649
4 *257:4 0.00477775
5 *257:6 *306:20 0.000581779
6 spine_top_iw[2] *2629:A 0.000200406
7 spine_top_iw[3] *2629:A 0.000184635
8 *2414:A *257:6 1.98839e-05
9 *2506:A *257:6 2.89016e-05
10 *21:28 *2629:A 0.000329173
11 *155:10 *257:6 0.000138881
12 *156:28 *257:6 5.52302e-05
13 *170:23 *257:6 4.43256e-05
14 *171:167 *257:6 0.000312203
15 *171:212 *257:6 0.000651973
16 *171:219 *257:6 5.52302e-05
17 *171:228 *257:6 0.0001399
*RES
1 *2621:X *257:4 9.3 
2 *257:4 *257:6 76.5179 
3 *257:6 *2629:A 31.0143 
*END

*D_NET *258 0.0145969
*CONN
*I *2630:A I *D sky130_fd_sc_hd__bufinv_8
*I *2622:X O *D sky130_fd_sc_hd__mux2_2
*CAP
1 *2630:A 0.00016364
2 *2622:X 0
3 *258:6 0.00459269
4 *258:4 0.00442905
5 *2361:A *258:6 2.84109e-05
6 *2394:A *258:6 0.000359947
7 *2399:TE_B *258:6 0.000793137
8 *2479:A *258:6 0.000398809
9 *2479:B *258:6 3.48705e-05
10 *2687:S *258:6 0.000611466
11 *13:55 *258:6 0.00222823
12 *22:30 *2630:A 0
13 *147:8 *258:6 2.72967e-05
14 *160:8 *258:6 5.33005e-05
15 *170:48 *258:6 0.000547361
16 *171:132 *258:6 5.23057e-05
17 *171:139 *258:6 4.88637e-05
18 *238:228 *258:6 0.000227532
*RES
1 *2622:X *258:4 9.3 
2 *258:4 *258:6 81.8571 
3 *258:6 *2630:A 21.1571 
*END

*D_NET *259 0.000504925
*CONN
*I *2631:A I *D sky130_fd_sc_hd__bufinv_8
*I *2623:X O *D sky130_fd_sc_hd__mux2_2
*CAP
1 *2631:A 0.000136464
2 *2623:X 0.000136464
3 *2631:A *2664:A 2.70875e-05
4 *2631:A *308:12 0.00017924
5 *2623:A1 *2631:A 2.56694e-05
6 *2623:S *2631:A 0
*RES
1 *2623:X *2631:A 30.2339 
*END

*D_NET *260 0.00113348
*CONN
*I *2632:A I *D sky130_fd_sc_hd__bufinv_8
*I *2624:X O *D sky130_fd_sc_hd__mux2_2
*CAP
1 *2632:A 0.000310728
2 *2624:X 0.000310728
3 *2632:A *2666:A 0.000151972
4 *2632:A *2692:A 0.000360049
5 *24:13 *2632:A 0
*RES
1 *2624:X *2632:A 32.9571 
*END

*D_NET *261 0.00114149
*CONN
*I *2633:A I *D sky130_fd_sc_hd__bufinv_8
*I *2625:X O *D sky130_fd_sc_hd__mux2_2
*CAP
1 *2633:A 0.000539872
2 *2625:X 0.000539872
3 *2633:A *2666:A 6.17498e-05
*RES
1 *2625:X *2633:A 34.6268 
*END

*D_NET *262 0.00231053
*CONN
*I *2634:A I *D sky130_fd_sc_hd__bufinv_8
*I *2626:X O *D sky130_fd_sc_hd__mux2_2
*CAP
1 *2634:A 0.000430553
2 *2626:X 0.000430553
3 *2634:A *2694:A 0.00100367
4 pad_uio_oe_n[4] *2634:A 0.000222878
5 *2625:A0 *2634:A 0.000222878
*RES
1 *2626:X *2634:A 40.0286 
*END

*D_NET *263 0.00288745
*CONN
*I *2651:A0 I *D sky130_fd_sc_hd__mux2_2
*I *2635:Y O *D sky130_fd_sc_hd__inv_2
*CAP
1 *2651:A0 0.000874008
2 *2635:Y 0.000874008
3 *2651:A0 *2685:A0 0.000127446
4 *2651:A0 *2685:A1 9.55371e-05
5 *2651:A0 *2686:A0 0
6 *2651:A0 *2686:A1 0
7 *2651:A0 *270:14 0
8 *2651:A0 *305:10 0
9 spine_top_ow[4] *2651:A0 0.000154901
10 spine_top_ow[5] *2651:A0 0
11 *2652:S *2651:A0 3.47641e-06
12 *2669:A *2651:A0 4.57538e-05
13 *2674:A *2651:A0 0
14 *2675:A *2651:A0 0.000511908
15 *2676:A *2651:A0 0
16 *156:28 *2651:A0 0.000200413
17 *157:23 *2651:A0 0
18 *238:248 *2651:A0 0
19 *238:267 *2651:A0 0
*RES
1 *2635:Y *2651:A0 46.7786 
*END

*D_NET *264 0.000780335
*CONN
*I *2653:A1 I *D sky130_fd_sc_hd__mux2_2
*I *2636:Y O *D sky130_fd_sc_hd__inv_2
*CAP
1 *2653:A1 0.000225864
2 *2636:Y 0.000225864
3 *2653:A1 *2654:A1 2.79092e-05
4 *2653:A1 *2689:A1 7.83659e-05
5 *2653:A1 *282:8 0.000178674
6 *2503:A *2653:A1 4.36581e-05
*RES
1 *2636:Y *2653:A1 31.225 
*END

*D_NET *265 0.000141159
*CONN
*I *2654:A1 I *D sky130_fd_sc_hd__mux2_2
*I *2637:Y O *D sky130_fd_sc_hd__inv_2
*CAP
1 *2654:A1 3.5829e-05
2 *2637:Y 3.5829e-05
3 *2653:A1 *2654:A1 2.79092e-05
4 *23:55 *2654:A1 4.15914e-05
*RES
1 *2637:Y *2654:A1 28.6357 
*END

*D_NET *266 0.000846057
*CONN
*I *2655:A1 I *D sky130_fd_sc_hd__mux2_2
*I *2638:Y O *D sky130_fd_sc_hd__inv_2
*CAP
1 *2655:A1 0.000293422
2 *2638:Y 0.000293422
3 *2655:A1 *2654:A0 0
4 *2655:A1 *2655:A0 0.000174564
5 *2655:A1 *283:12 3.57844e-05
6 *2655:A1 *309:16 4.88637e-05
*RES
1 *2638:Y *2655:A1 32.3321 
*END

*D_NET *267 0.000708761
*CONN
*I *2656:A1 I *D sky130_fd_sc_hd__mux2_2
*I *2639:Y O *D sky130_fd_sc_hd__inv_2
*CAP
1 *2656:A1 0.000189285
2 *2639:Y 0.000189285
3 *2656:A1 *2656:A0 9.54821e-05
4 *2620:A0 *2656:A1 0
5 *2656:S *2656:A1 3.18676e-05
6 *239:12 *2656:A1 0.000202842
*RES
1 *2639:Y *2656:A1 31.5107 
*END

*D_NET *268 0.001312
*CONN
*I *2657:A1 I *D sky130_fd_sc_hd__mux2_2
*I *2640:Y O *D sky130_fd_sc_hd__inv_2
*CAP
1 *2657:A1 0.000410504
2 *2640:Y 0.000410504
3 *2657:A1 *304:32 0.000444732
4 *148:21 *2657:A1 4.62632e-05
5 *170:135 *2657:A1 0
*RES
1 *2640:Y *2657:A1 33.7786 
*END

*D_NET *269 0.00136267
*CONN
*I *2658:A1 I *D sky130_fd_sc_hd__mux2_2
*I *2641:Y O *D sky130_fd_sc_hd__inv_2
*CAP
1 *2658:A1 0.000406563
2 *2641:Y 0.000406563
3 *2658:A1 *2665:A 9.94194e-06
4 *2658:A1 *304:32 0.000224169
5 *2409:A *2658:A1 4.8936e-05
6 *2409:TE_B *2658:A1 0
7 *143:10 *2658:A1 8.00806e-05
8 *171:47 *2658:A1 4.03318e-05
9 *171:80 *2658:A1 1.59782e-05
10 *238:91 *2658:A1 0.000104169
11 *238:100 *2658:A1 2.59355e-05
*RES
1 *2641:Y *2658:A1 34.8857 
*END

*D_NET *270 0.00383513
*CONN
*I *2652:A0 I *D sky130_fd_sc_hd__mux2_2
*I *2642:Y O *D sky130_fd_sc_hd__inv_2
*CAP
1 *2652:A0 0
2 *2642:Y 0.00113118
3 *270:14 0.00113118
4 *270:14 *2651:A1 5.52302e-05
5 *270:14 *2652:A1 0.000184669
6 *270:14 *2686:A0 0
7 *270:14 *2686:A1 9.12446e-05
8 *270:14 *2687:A0 0
9 *270:14 *2688:A0 0
10 *270:14 *303:12 0.00010326
11 *270:14 *305:10 0
12 spine_top_ow[5] *270:14 5.50995e-05
13 *2501:A *270:14 5.74699e-05
14 *2575:DIODE *270:14 0.000128918
15 *2642:A *270:14 2.27416e-05
16 *2649:A *270:14 0.000184798
17 *2650:A *270:14 0.000100685
18 *2651:A0 *270:14 0
19 *2652:S *270:14 0
20 *2670:A *270:14 9.00726e-05
21 *2676:A *270:14 0
22 *2677:A *270:14 6.97972e-05
23 *157:23 *270:14 6.76365e-05
24 *171:171 *270:14 0.000361155
*RES
1 *2642:Y *270:14 44.2464 
2 *270:14 *2652:A0 9.3 
*END

*D_NET *271 0.00309459
*CONN
*I *2653:A0 I *D sky130_fd_sc_hd__mux2_2
*I *2643:Y O *D sky130_fd_sc_hd__inv_2
*CAP
1 *2653:A0 0.000912924
2 *2643:Y 0.000912924
3 *2653:A0 *2687:A0 0
4 *2653:A0 *2688:A0 0.000127506
5 *2653:A0 *2688:A1 3.92757e-05
6 *2653:A0 *2689:A0 0
7 *2653:A0 *304:24 9.91778e-05
8 *2653:A0 *306:20 4.66096e-05
9 *2653:A0 *307:10 0.000103267
10 spine_top_ow[8] *2653:A0 0.000352002
11 *2503:A *2653:A0 2.28598e-05
12 *2642:A *2653:A0 4.57445e-05
13 *2677:A *2653:A0 0
14 *2679:A *2653:A0 8.06427e-05
15 *160:10 *2653:A0 0
16 *170:62 *2653:A0 0
17 *171:156 *2653:A0 0.000100736
18 *238:32 *2653:A0 0
19 *238:45 *2653:A0 0.000197623
20 *238:51 *2653:A0 5.33005e-05
*RES
1 *2643:Y *2653:A0 49.7429 
*END

*D_NET *272 0.00322244
*CONN
*I *2654:A0 I *D sky130_fd_sc_hd__mux2_2
*I *2644:Y O *D sky130_fd_sc_hd__inv_2
*CAP
1 *2654:A0 0.000642262
2 *2644:Y 0.000642262
3 *2654:A0 *2655:A0 0
4 *2654:A0 *2689:A0 0.00124238
5 *2654:A0 *2689:A1 0
6 *2654:A0 *283:12 0
7 *2655:A1 *2654:A0 0
8 *23:55 *2654:A0 3.47641e-06
9 *25:34 *2654:A0 3.80667e-05
10 *160:10 *2654:A0 0.00065399
*RES
1 *2644:Y *2654:A0 46.2429 
*END

*D_NET *273 0.00224968
*CONN
*I *2655:A0 I *D sky130_fd_sc_hd__mux2_2
*I *2645:Y O *D sky130_fd_sc_hd__inv_2
*CAP
1 *2655:A0 0.000881627
2 *2645:Y 0.000881627
3 *2655:A0 *283:12 0.000128154
4 *2655:A0 *309:16 0.000183713
5 *2584:DIODE *2655:A0 0
6 *2654:A0 *2655:A0 0
7 *2655:A1 *2655:A0 0.000174564
8 *160:10 *2655:A0 0
*RES
1 *2645:Y *2655:A0 43.3857 
*END

*D_NET *274 0.000738751
*CONN
*I *2656:A0 I *D sky130_fd_sc_hd__mux2_2
*I *2646:Y O *D sky130_fd_sc_hd__inv_2
*CAP
1 *2656:A0 0.000222505
2 *2646:Y 0.000222505
3 *2620:A0 *2656:A0 0
4 *2656:A1 *2656:A0 9.54821e-05
5 *2656:S *2656:A0 5.71472e-05
6 *239:12 *2656:A0 0.000141113
*RES
1 *2646:Y *2656:A0 32.9214 
*END

*D_NET *275 0.00354507
*CONN
*I *2657:A0 I *D sky130_fd_sc_hd__mux2_2
*I *2647:Y O *D sky130_fd_sc_hd__inv_2
*CAP
1 *2657:A0 0.000641851
2 *2647:Y 0.000641851
3 *2657:A0 *2658:A0 0.00104321
4 *2657:A0 *308:12 0.00040765
5 *2407:TE_B *2657:A0 0.00019384
6 *2606:A *2657:A0 0.000150632
7 *170:99 *2657:A0 0.000381325
8 *171:47 *2657:A0 8.47107e-05
*RES
1 *2647:Y *2657:A0 45.2071 
*END

*D_NET *276 0.00347092
*CONN
*I *2658:A0 I *D sky130_fd_sc_hd__mux2_2
*I *2648:Y O *D sky130_fd_sc_hd__inv_2
*CAP
1 *2658:A0 0.000690829
2 *2648:Y 0.000690829
3 *2658:A0 *2664:A 4.67502e-05
4 spine_top_ow[24] *2658:A0 0
5 *2608:A *2658:A0 0
6 *2623:A0 *2658:A0 1.00375e-05
7 *2623:S *2658:A0 0.000199783
8 *2648:A *2658:A0 0
9 *2657:A0 *2658:A0 0.00104321
10 *23:15 *2658:A0 0
11 *23:55 *2658:A0 0.000400015
12 *150:8 *2658:A0 0
13 *152:20 *2658:A0 0
14 *238:91 *2658:A0 0.000359152
15 *238:100 *2658:A0 3.03071e-05
*RES
1 *2648:Y *2658:A0 47.0821 
*END

*D_NET *277 0.000815518
*CONN
*I *2651:A1 I *D sky130_fd_sc_hd__mux2_2
*I *2649:Y O *D sky130_fd_sc_hd__inv_2
*CAP
1 *2651:A1 0.000257774
2 *2649:Y 0.000257774
3 *2651:A1 *280:12 0.000136009
4 *2649:A *2651:A1 6.94552e-05
5 *2652:S *2651:A1 3.92757e-05
6 *270:14 *2651:A1 5.52302e-05
*RES
1 *2649:Y *2651:A1 31.6357 
*END

*D_NET *278 0.000431133
*CONN
*I *2652:A1 I *D sky130_fd_sc_hd__mux2_2
*I *2650:Y O *D sky130_fd_sc_hd__inv_2
*CAP
1 *2652:A1 0.000123232
2 *2650:Y 0.000123232
3 *270:14 *2652:A1 0.000184669
*RES
1 *2650:Y *2652:A1 20.3679 
*END

*D_NET *279 0.0157643
*CONN
*I *2659:A I *D sky130_fd_sc_hd__bufinv_8
*I *2651:X O *D sky130_fd_sc_hd__mux2_2
*CAP
1 *2659:A 0.00014895
2 *2651:X 0.000635251
3 *279:10 0.0036195
4 *279:8 0.0041058
5 *279:8 *281:12 0.0024872
6 *279:8 *282:8 0.000467264
7 *279:8 *282:14 0.000511297
8 *279:10 *282:14 0.00192164
9 *2489:A *2659:A 0
10 *2491:A *279:10 0.00022614
11 *2495:B *279:8 0.000154027
12 *2503:A *279:8 0.000391062
13 *2503:B *279:8 0.000141734
14 *9:43 *279:10 0.000415313
15 *238:267 *279:8 9.90367e-05
16 *255:18 *2659:A 0.000207304
17 *255:18 *279:8 0.000232737
*RES
1 *2651:X *279:8 37.5768 
2 *279:8 *279:10 47.9732 
3 *279:10 *2659:A 21.4607 
*END

*D_NET *280 0.0127896
*CONN
*I *2660:A I *D sky130_fd_sc_hd__bufinv_8
*I *2652:X O *D sky130_fd_sc_hd__mux2_2
*CAP
1 *2660:A 0.000261875
2 *2652:X 0.000665229
3 *280:14 0.00305585
4 *280:12 0.00345921
5 pad_uio_oe_n[2] *2660:A 0
6 pad_uio_out[3] *2660:A 0
7 *2469:A *280:14 0.00118873
8 *2472:A *280:14 0.000141131
9 *2490:A *280:14 0.000144074
10 *2499:A *280:12 7.48301e-06
11 *2500:A *280:14 9.90431e-05
12 *2501:A *280:12 0.000276808
13 *2649:A *280:12 9.21958e-05
14 *2651:A1 *280:12 0.000136009
15 *22:21 *280:14 2.75484e-05
16 *203:38 *280:12 5.49544e-05
17 *203:45 *280:12 0.000258096
18 *203:60 *280:12 0.000129515
19 *203:60 *280:14 0.000393807
20 *203:82 *280:14 0.00075521
21 *203:91 *280:14 0.000317256
22 *203:102 *280:14 0.000314889
23 *203:109 *280:14 0.000117394
24 *203:192 *280:14 0.000173468
25 *203:205 *280:14 0.000437201
26 *203:212 *280:14 0.000282611
27 *256:18 *2660:A 0
*RES
1 *2652:X *280:12 31.7018 
2 *280:12 *280:14 58.4464 
3 *280:14 *2660:A 22.675 
*END

*D_NET *281 0.0171114
*CONN
*I *2661:A I *D sky130_fd_sc_hd__bufinv_8
*I *2653:X O *D sky130_fd_sc_hd__mux2_2
*CAP
1 *2661:A 0.000344613
2 *2653:X 0.002158
3 *281:18 0.00143744
4 *281:12 0.00325082
5 *281:18 *282:14 0.00373641
6 *281:18 *283:24 0
7 pad_uio_out[4] *281:18 0
8 spine_top_iw[19] *281:12 0
9 *2487:A *281:18 4.26014e-05
10 *2495:A *281:12 2.39664e-05
11 *2503:A *281:12 0.000159269
12 *2652:S *281:12 2.41649e-05
13 *9:43 *281:18 0.0016561
14 *20:45 *281:18 0.00101496
15 *22:30 *281:18 0
16 *238:267 *281:12 0.0001865
17 *255:18 *281:12 0.000355658
18 *255:18 *281:18 0.000233689
19 *279:8 *281:12 0.0024872
*RES
1 *2653:X *281:12 49.8536 
2 *281:12 *281:18 47.0536 
3 *281:18 *2661:A 19.2643 
*END

*D_NET *282 0.0150876
*CONN
*I *2662:A I *D sky130_fd_sc_hd__bufinv_8
*I *2654:X O *D sky130_fd_sc_hd__mux2_2
*CAP
1 *2662:A 0
2 *2654:X 0.00158894
3 *282:14 0.00103204
4 *282:8 0.00262099
5 pad_uio_oe_n[3] *282:14 0
6 *2495:B *282:8 0.000274294
7 *2503:A *282:8 0.00199244
8 *2503:B *282:8 4.73286e-05
9 *2504:A *282:8 5.65955e-05
10 *2653:A1 *282:8 0.000178674
11 *9:43 *282:14 0.000139087
12 *22:30 *282:14 7.44731e-05
13 *255:18 *282:14 0.000122494
14 *256:18 *282:8 0.00032366
15 *279:8 *282:8 0.000467264
16 *279:8 *282:14 0.000511297
17 *279:10 *282:14 0.00192164
18 *281:18 *282:14 0.00373641
*RES
1 *2654:X *282:8 43.7554 
2 *282:8 *282:14 48.1071 
3 *282:14 *2662:A 13.8 
*END

*D_NET *283 0.0132504
*CONN
*I *2663:A I *D sky130_fd_sc_hd__bufinv_8
*I *2655:X O *D sky130_fd_sc_hd__mux2_2
*CAP
1 *2663:A 0
2 *2655:X 0.000136686
3 *283:24 0.00294237
4 *283:16 0.00565294
5 *283:12 0.00284726
6 *283:12 *309:16 5.03772e-05
7 *283:16 *2685:A1 3.5566e-05
8 *283:16 *305:12 0.000594287
9 spine_top_iw[2] *283:24 0.000606762
10 *2487:A *283:24 0
11 *2513:A *283:24 2.89114e-05
12 *2571:DIODE *283:16 9.41642e-05
13 *2654:A0 *283:12 0
14 *2655:A0 *283:12 0.000128154
15 *2655:A1 *283:12 3.57844e-05
16 *25:34 *283:12 9.71197e-05
17 *281:18 *283:24 0
*RES
1 *2655:X *283:12 21.8 
2 *283:12 *283:16 42.6518 
3 *283:16 *283:24 46.0804 
4 *283:24 *2663:A 9.3 
*END

*D_NET *284 0.00266829
*CONN
*I *2664:A I *D sky130_fd_sc_hd__bufinv_8
*I *2656:X O *D sky130_fd_sc_hd__mux2_2
*CAP
1 *2664:A 0.000939968
2 *2656:X 0.000939968
3 *2664:A *308:12 0.000374948
4 *2622:A0 *2664:A 5.52302e-05
5 *2623:A0 *2664:A 0
6 *2631:A *2664:A 2.70875e-05
7 *2648:A *2664:A 0.000206564
8 *2656:S *2664:A 7.77751e-05
9 *2658:A0 *2664:A 4.67502e-05
*RES
1 *2656:X *2664:A 45.1357 
*END

*D_NET *285 0.00255849
*CONN
*I *2665:A I *D sky130_fd_sc_hd__bufinv_8
*I *2657:X O *D sky130_fd_sc_hd__mux2_2
*CAP
1 *2665:A 0.00108961
2 *2657:X 0.00108961
3 *2665:A *304:32 7.05982e-05
4 spine_top_ow[23] *2665:A 6.27272e-06
5 *2409:A *2665:A 0.000192766
6 *2592:DIODE *2665:A 7.77751e-05
7 *2658:A1 *2665:A 9.94194e-06
8 *143:10 *2665:A 0
9 *150:8 *2665:A 0
10 *171:47 *2665:A 0
11 *238:91 *2665:A 2.19064e-05
*RES
1 *2657:X *2665:A 46.9482 
*END

*D_NET *286 0.00281641
*CONN
*I *2666:A I *D sky130_fd_sc_hd__bufinv_8
*I *2658:X O *D sky130_fd_sc_hd__mux2_2
*CAP
1 *2666:A 0.00090457
2 *2658:X 0.00090457
3 *2666:A *2697:A 0.000703331
4 pad_uio_oe_n[5] *2666:A 0
5 *2625:A1 *2666:A 1.39841e-05
6 *2625:S *2666:A 7.62318e-05
7 *2632:A *2666:A 0.000151972
8 *2633:A *2666:A 6.17498e-05
9 *24:13 *2666:A 0
10 *24:15 *2666:A 0
*RES
1 *2658:X *2666:A 45.7607 
*END

*D_NET *287 0.00104362
*CONN
*I *2683:A0 I *D sky130_fd_sc_hd__mux2_2
*I *2667:Y O *D sky130_fd_sc_hd__inv_2
*CAP
1 *2683:A0 0.00029961
2 *2667:Y 0.00029961
3 *2675:A *2683:A0 0.000121948
4 *98:26 *2683:A0 0.000322453
*RES
1 *2667:Y *2683:A0 33.85 
*END

*D_NET *288 0.000911925
*CONN
*I *2685:A1 I *D sky130_fd_sc_hd__mux2_2
*I *2668:Y O *D sky130_fd_sc_hd__inv_2
*CAP
1 *2685:A1 0.000268556
2 *2668:Y 0.000268556
3 *2685:A1 *2684:A0 0.000133477
4 *2651:A0 *2685:A1 9.55371e-05
5 *2687:S *2685:A1 3.18676e-05
6 *156:28 *2685:A1 7.83659e-05
7 *283:16 *2685:A1 3.5566e-05
*RES
1 *2668:Y *2685:A1 32.9571 
*END

*D_NET *289 0.000297025
*CONN
*I *2686:A1 I *D sky130_fd_sc_hd__mux2_2
*I *2669:Y O *D sky130_fd_sc_hd__inv_2
*CAP
1 *2686:A1 8.03453e-05
2 *2669:Y 8.03453e-05
3 *2686:A1 *2686:A0 3.17067e-05
4 *2686:A1 *303:12 9.25014e-06
5 *2686:A1 *305:10 4.1331e-06
6 *2651:A0 *2686:A1 0
7 *270:14 *2686:A1 9.12446e-05
*RES
1 *2669:Y *2686:A1 29.85 
*END

*D_NET *290 0.000333803
*CONN
*I *2687:A1 I *D sky130_fd_sc_hd__mux2_2
*I *2670:Y O *D sky130_fd_sc_hd__inv_2
*CAP
1 *2687:A1 9.52204e-05
2 *2670:Y 9.52204e-05
3 *2687:S *2687:A1 4.43256e-05
4 *170:48 *2687:A1 9.90367e-05
*RES
1 *2670:Y *2687:A1 20.3679 
*END

*D_NET *291 0.000588979
*CONN
*I *2688:A1 I *D sky130_fd_sc_hd__mux2_2
*I *2671:Y O *D sky130_fd_sc_hd__inv_2
*CAP
1 *2688:A1 0.000162193
2 *2671:Y 0.000162193
3 *2688:A1 *303:18 0.000183726
4 *2653:A0 *2688:A1 3.92757e-05
5 *238:32 *2688:A1 4.15914e-05
*RES
1 *2671:Y *2688:A1 30.4036 
*END

*D_NET *292 0.00214129
*CONN
*I *2689:A1 I *D sky130_fd_sc_hd__mux2_2
*I *2672:Y O *D sky130_fd_sc_hd__inv_2
*CAP
1 *2689:A1 0.000488345
2 *2672:Y 0.000488345
3 spine_top_ow[8] *2689:A1 0.000552728
4 *2396:TE_B *2689:A1 0.000224314
5 *2636:A *2689:A1 7.73662e-05
6 *2653:A1 *2689:A1 7.83659e-05
7 *2654:A0 *2689:A1 0
8 *23:55 *2689:A1 0
9 *25:34 *2689:A1 0.00014681
10 *238:32 *2689:A1 3.17148e-05
11 *238:45 *2689:A1 5.33005e-05
*RES
1 *2672:Y *2689:A1 38.1357 
*END

*D_NET *293 0.000878007
*CONN
*I *2690:A1 I *D sky130_fd_sc_hd__mux2_2
*I *2673:Y O *D sky130_fd_sc_hd__inv_2
*CAP
1 *2690:A1 0.000286462
2 *2673:Y 0.000286462
3 *2690:S *2690:A1 0.000139907
4 *23:30 *2690:A1 2.28499e-05
5 *81:22 *2690:A1 0
6 *82:24 *2690:A1 0.000142327
*RES
1 *2673:Y *2690:A1 32.8321 
*END

*D_NET *294 0.000961533
*CONN
*I *2684:A0 I *D sky130_fd_sc_hd__mux2_2
*I *2674:Y O *D sky130_fd_sc_hd__inv_2
*CAP
1 *2684:A0 0.000251881
2 *2674:Y 0.000251881
3 spine_top_ow[3] *2684:A0 7.48356e-05
4 spine_top_ow[4] *2684:A0 3.79467e-05
5 *2674:A *2684:A0 6.05161e-06
6 *2685:A1 *2684:A0 0.000133477
7 *155:10 *2684:A0 8.06331e-05
8 *156:28 *2684:A0 4.7024e-05
9 *238:228 *2684:A0 1.55885e-05
10 *238:248 *2684:A0 6.22145e-05
*RES
1 *2674:Y *2684:A0 34.3321 
*END

*D_NET *295 0.000375382
*CONN
*I *2685:A0 I *D sky130_fd_sc_hd__mux2_2
*I *2675:Y O *D sky130_fd_sc_hd__inv_2
*CAP
1 *2685:A0 0.000114323
2 *2675:Y 0.000114323
3 *2651:A0 *2685:A0 0.000127446
4 *2674:A *2685:A0 0
5 *2675:A *2685:A0 1.92905e-05
*RES
1 *2675:Y *2685:A0 29.7786 
*END

*D_NET *296 0.000677412
*CONN
*I *2686:A0 I *D sky130_fd_sc_hd__mux2_2
*I *2676:Y O *D sky130_fd_sc_hd__inv_2
*CAP
1 *2686:A0 0.000293082
2 *2676:Y 0.000293082
3 *2686:A0 *303:12 3.06406e-05
4 *2651:A0 *2686:A0 0
5 *2686:A1 *2686:A0 3.17067e-05
6 *2686:S *2686:A0 2.89016e-05
7 *270:14 *2686:A0 0
*RES
1 *2676:Y *2686:A0 32.9214 
*END

*D_NET *297 0.00117487
*CONN
*I *2687:A0 I *D sky130_fd_sc_hd__mux2_2
*I *2677:Y O *D sky130_fd_sc_hd__inv_2
*CAP
1 *2687:A0 0.000418046
2 *2677:Y 0.000418046
3 *2687:A0 *2688:A0 0.000153047
4 *2687:A0 *306:20 0.00012401
5 *2575:DIODE *2687:A0 6.17227e-05
6 *2653:A0 *2687:A0 0
7 *270:14 *2687:A0 0
*RES
1 *2677:Y *2687:A0 35.4571 
*END

*D_NET *298 0.00113373
*CONN
*I *2688:A0 I *D sky130_fd_sc_hd__mux2_2
*I *2678:Y O *D sky130_fd_sc_hd__inv_2
*CAP
1 *2688:A0 0.000269008
2 *2678:Y 0.000269008
3 *2653:A0 *2688:A0 0.000127506
4 *2677:A *2688:A0 0
5 *2687:A0 *2688:A0 0.000153047
6 *238:22 *2688:A0 0.000170385
7 *238:32 *2688:A0 0.000144773
8 *270:14 *2688:A0 0
*RES
1 *2678:Y *2688:A0 34.975 
*END

*D_NET *299 0.00323282
*CONN
*I *2689:A0 I *D sky130_fd_sc_hd__mux2_2
*I *2679:Y O *D sky130_fd_sc_hd__inv_2
*CAP
1 *2689:A0 0.000739861
2 *2679:Y 0.000739861
3 *2642:A *2689:A0 5.06983e-05
4 *2653:A0 *2689:A0 0
5 *2654:A0 *2689:A0 0.00124238
6 *25:34 *2689:A0 1.07719e-05
7 *238:32 *2689:A0 0.000449248
*RES
1 *2679:Y *2689:A0 46.6357 
*END

*D_NET *300 0.000639728
*CONN
*I *2690:A0 I *D sky130_fd_sc_hd__mux2_2
*I *2680:Y O *D sky130_fd_sc_hd__inv_2
*CAP
1 *2690:A0 0.00020896
2 *2680:Y 0.00020896
3 *2690:A0 *310:14 0
4 *2453:A *2690:A0 9.60771e-05
5 *83:29 *2690:A0 0.000125731
6 *84:22 *2690:A0 0
*RES
1 *2680:Y *2690:A0 31.0107 
*END

*D_NET *301 0.000885056
*CONN
*I *2683:A1 I *D sky130_fd_sc_hd__mux2_2
*I *2681:Y O *D sky130_fd_sc_hd__inv_2
*CAP
1 *2683:A1 0.000300314
2 *2681:Y 0.000300314
3 *2674:A *2683:A1 7.83587e-05
4 *2675:A *2683:A1 2.79092e-05
5 *2686:S *2683:A1 0.000137983
6 *170:10 *2683:A1 4.01768e-05
*RES
1 *2681:Y *2683:A1 32.0464 
*END

*D_NET *302 0.00103936
*CONN
*I *2684:A1 I *D sky130_fd_sc_hd__mux2_2
*I *2682:Y O *D sky130_fd_sc_hd__inv_2
*CAP
1 *2684:A1 0.000376178
2 *2682:Y 0.000376178
3 *2406:A *2684:A1 2.89114e-05
4 *2406:TE_B *2684:A1 2.89114e-05
5 *2570:DIODE *2684:A1 0.000185643
6 *2682:A *2684:A1 4.3537e-05
*RES
1 *2682:Y *2684:A1 24.2071 
*END

*D_NET *303 0.00782567
*CONN
*I *2691:A I *D sky130_fd_sc_hd__bufinv_8
*I *2683:X O *D sky130_fd_sc_hd__mux2_2
*CAP
1 *2691:A 0
2 *2683:X 0.000251335
3 *303:18 0.00236713
4 *303:12 0.00261847
5 *303:18 *306:20 7.49387e-06
6 *303:18 *307:14 0.00182238
7 *2575:DIODE *303:18 5.62995e-05
8 *2606:A *303:18 5.52302e-05
9 *2623:A1 *303:18 9.60939e-05
10 *2671:A *303:18 5.52238e-05
11 *2686:A0 *303:12 3.06406e-05
12 *2686:A1 *303:12 9.25014e-06
13 *2688:A1 *303:18 0.000183726
14 *238:22 *303:12 0.00016914
15 *270:14 *303:12 0.00010326
*RES
1 *2683:X *303:12 22.5589 
2 *303:12 *303:18 46.2679 
3 *303:18 *2691:A 9.3 
*END

*D_NET *304 0.0109465
*CONN
*I *2692:A I *D sky130_fd_sc_hd__bufinv_8
*I *2684:X O *D sky130_fd_sc_hd__mux2_2
*CAP
1 *2692:A 0.00133502
2 *2684:X 0.00133945
3 *304:32 0.00206216
4 *304:24 0.00206659
5 *2401:A *2692:A 4.88637e-05
6 *2401:TE_B *2692:A 0.000136951
7 *2409:A *304:32 5.41794e-05
8 *2503:A *304:24 1.39726e-05
9 *2620:A0 *304:32 9.90367e-05
10 *2620:A1 *304:32 0.000144773
11 *2632:A *2692:A 0.000360049
12 *2653:A0 *304:24 9.91778e-05
13 *2657:A1 *304:32 0.000444732
14 *2658:A1 *304:32 0.000224169
15 *2665:A *304:32 7.05982e-05
16 *23:55 *304:24 0.000537171
17 *24:36 *2692:A 0.000337515
18 *170:62 *304:24 2.34204e-05
19 *238:45 *304:24 3.92757e-05
20 *238:51 *304:24 0.000263916
21 *238:74 *304:24 1.21289e-05
22 *238:74 *304:32 0.000317191
23 *238:76 *304:32 0.000178943
24 *238:78 *304:32 0.000439971
25 *238:91 *304:32 0.000166782
26 *239:12 *304:24 0
27 *255:18 *304:24 0.000130424
*RES
1 *2684:X *304:24 47.0143 
2 *304:24 *304:32 28.1071 
3 *304:32 *2692:A 32.3357 
*END

*D_NET *305 0.00797786
*CONN
*I *2693:A I *D sky130_fd_sc_hd__bufinv_8
*I *2685:X O *D sky130_fd_sc_hd__mux2_2
*CAP
1 *2693:A 2.23854e-05
2 *2685:X 0.000242319
3 *305:12 0.00315823
4 *305:10 0.00337817
5 *2604:A *305:12 0.000227539
6 *2621:A1 *305:12 2.89016e-05
7 *2651:A0 *305:10 0
8 *2669:A *305:10 0.000128161
9 *2670:A *305:10 0.000126238
10 *2686:A1 *305:10 4.1331e-06
11 *157:23 *305:10 6.74911e-05
12 *270:14 *305:10 0
13 *283:16 *305:12 0.000594287
*RES
1 *2685:X *305:10 23.8893 
2 *305:10 *305:12 52.6964 
3 *305:12 *2693:A 9.72857 
*END

*D_NET *306 0.00922617
*CONN
*I *2694:A I *D sky130_fd_sc_hd__bufinv_8
*I *2686:X O *D sky130_fd_sc_hd__mux2_2
*CAP
1 *2694:A 0.00187472
2 *2686:X 0.00116008
3 *306:20 0.00303479
4 *2404:TE_B *2694:A 4.43256e-05
5 *2410:A *2694:A 0.000223558
6 *2410:TE_B *2694:A 4.88637e-05
7 *2414:A *306:20 5.52302e-05
8 *2414:TE_B *306:20 5.33005e-05
9 *2575:DIODE *306:20 5.33334e-05
10 *2609:A *2694:A 5.52302e-05
11 *2621:A0 *306:20 5.33005e-05
12 *2621:S *2694:A 9.90431e-05
13 *2621:S *306:20 3.1889e-05
14 *2634:A *2694:A 0.00100367
15 *2653:A0 *306:20 4.66096e-05
16 *2671:A *306:20 1.92789e-05
17 *2687:A0 *306:20 0.00012401
18 *170:48 *306:20 5.35516e-05
19 *171:23 *2694:A 0.000347734
20 *171:25 *2694:A 8.76257e-05
21 *171:156 *306:20 0.00015134
22 *171:167 *306:20 1.54142e-05
23 *257:6 *306:20 0.000581779
24 *303:18 *306:20 7.49387e-06
*RES
1 *2686:X *306:20 40.9607 
2 *306:20 *2694:A 42.3 
*END

*D_NET *307 0.00754446
*CONN
*I *2695:A I *D sky130_fd_sc_hd__bufinv_8
*I *2687:X O *D sky130_fd_sc_hd__mux2_2
*CAP
1 *2695:A 0
2 *2687:X 4.1688e-05
3 *307:14 0.00273689
4 *307:10 0.00277858
5 *2606:A *307:14 2.59355e-05
6 *2653:A0 *307:10 0.000103267
7 *238:32 *307:10 3.57163e-05
8 *303:18 *307:14 0.00182238
*RES
1 *2687:X *307:10 19.6393 
2 *307:10 *307:14 49.3214 
3 *307:14 *2695:A 9.3 
*END

*D_NET *308 0.00762261
*CONN
*I *2696:A I *D sky130_fd_sc_hd__bufinv_8
*I *2688:X O *D sky130_fd_sc_hd__mux2_2
*CAP
1 *2696:A 0.0013371
2 *2688:X 0.00156825
3 *308:12 0.00290536
4 *2584:DIODE *308:12 0.00010096
5 *2611:A *308:12 0.000225609
6 *2623:S *308:12 0
7 *2626:S *2696:A 0.00018372
8 *2631:A *308:12 0.00017924
9 *2639:A *308:12 5.52302e-05
10 *2647:A *308:12 5.52238e-05
11 *2648:A *308:12 9.90367e-05
12 *2657:A0 *308:12 0.00040765
13 *2664:A *308:12 0.000374948
14 *23:15 *308:12 0.000130283
*RES
1 *2688:X *308:12 47.6661 
2 *308:12 *2696:A 30.7821 
*END

*D_NET *309 0.00880984
*CONN
*I *2697:A I *D sky130_fd_sc_hd__bufinv_8
*I *2689:X O *D sky130_fd_sc_hd__mux2_2
*CAP
1 *2697:A 0.00138922
2 *2689:X 0.0011565
3 *309:16 0.00254572
4 spine_top_ow[16] *309:16 0.00016389
5 spine_top_ow[19] *309:16 1.19468e-05
6 *2403:TE_B *309:16 0.000252006
7 *2409:TE_B *309:16 0.000314563
8 *2593:DIODE *2697:A 1.07719e-05
9 *2620:A1 *309:16 0
10 *2655:A0 *309:16 0.000183713
11 *2655:A1 *309:16 4.88637e-05
12 *2655:S *309:16 0.000837131
13 *2666:A *2697:A 0.000703331
14 *25:34 *309:16 0.000505752
15 *146:19 *309:16 0.00045484
16 *148:21 *309:16 0.000181209
17 *283:12 *309:16 5.03772e-05
*RES
1 *2689:X *309:16 49.2018 
2 *309:16 *2697:A 32.0321 
*END

*D_NET *310 0.00727378
*CONN
*I *2698:A I *D sky130_fd_sc_hd__bufinv_8
*I *2690:X O *D sky130_fd_sc_hd__mux2_2
*CAP
1 *2698:A 0.000675543
2 *2690:X 0.00207527
3 *310:14 0.00275081
4 spine_bot_ow[11] *310:14 0
5 spine_bot_ow[12] *310:14 0
6 spine_bot_ow[13] *310:14 2.06827e-05
7 *2382:A *310:14 0.000400919
8 *2690:A0 *310:14 0
9 *82:24 *310:14 0
10 *83:29 *310:14 0
11 *84:22 *310:14 0.000247674
12 *166:30 *310:14 0.000165757
13 *166:32 *310:14 0.000195455
14 *166:34 *310:14 0.000196867
15 *167:17 *310:14 0.000158782
16 *167:23 *310:14 0.000359076
17 *167:32 *310:14 2.12005e-05
18 *167:65 *310:14 5.74499e-06
19 *167:107 *310:14 0
*RES
1 *2690:X *310:14 49.7732 
2 *310:14 *2698:A 20.3089 
*END
