*SPEF "ieee 1481-1999"
*DESIGN "tt_um_chip_rom"
*DATE "10:06:10 Saturday December 06, 2025"
*VENDOR "The OpenROAD Project"
*PROGRAM "OpenROAD"
*VERSION "341650e72dad0dc8571822ff8c5d9c5e365327f7"
*DESIGN_FLOW "NAME_SCOPE LOCAL" "PIN_CAP NONE"
*DIVIDER /
*DELIMITER :
*BUS_DELIMITER []
*T_UNIT 1 NS
*C_UNIT 1 PF
*R_UNIT 1 OHM
*L_UNIT 1 HENRY

*NAME_MAP
*3 clk
*4 ena
*5 rst_n
*6 ui_in[0]
*7 ui_in[1]
*8 ui_in[2]
*9 ui_in[3]
*10 ui_in[4]
*11 ui_in[5]
*12 ui_in[6]
*13 ui_in[7]
*14 uio_in[0]
*15 uio_in[1]
*16 uio_in[2]
*17 uio_in[3]
*18 uio_in[4]
*19 uio_in[5]
*20 uio_in[6]
*21 uio_in[7]
*22 net27
*23 net41
*24 net42
*25 net43
*26 net44
*27 net45
*28 net46
*29 net47
*30 net48
*31 net49
*32 net50
*33 net51
*34 net52
*35 net53
*36 net54
*37 net55
*38 uo_out[0]
*39 uo_out[1]
*40 uo_out[2]
*41 uo_out[3]
*42 uo_out[4]
*43 uo_out[5]
*44 uo_out[6]
*45 uo_out[7]
*46 _000_
*47 _001_
*48 _002_
*49 _003_
*50 _004_
*51 _005_
*52 _006_
*53 _007_
*54 _008_
*55 _009_
*56 _010_
*57 _011_
*58 _012_
*59 _013_
*60 _014_
*61 _015_
*62 _016_
*63 _017_
*64 _018_
*65 _019_
*66 _020_
*67 _021_
*68 _022_
*69 _023_
*70 _024_
*71 _025_
*72 _026_
*73 _027_
*74 _028_
*75 _029_
*76 _030_
*77 _031_
*78 _032_
*79 _033_
*80 _034_
*81 _035_
*82 _036_
*83 _037_
*84 _038_
*85 _039_
*86 _040_
*87 _041_
*88 _042_
*89 _043_
*90 _044_
*91 _045_
*92 _046_
*93 _047_
*94 _048_
*95 _049_
*96 _050_
*97 _051_
*98 _052_
*99 _053_
*100 _054_
*101 _055_
*102 _056_
*103 _057_
*104 _058_
*105 _059_
*106 _060_
*107 _061_
*108 _062_
*109 _063_
*110 _064_
*111 _065_
*112 _066_
*113 _067_
*114 _068_
*115 _069_
*116 _070_
*117 _071_
*118 _072_
*119 _073_
*120 _074_
*121 _075_
*122 _076_
*123 _077_
*124 _078_
*125 _079_
*126 _080_
*127 _081_
*128 _082_
*129 _083_
*130 _084_
*131 _085_
*132 _086_
*133 _087_
*134 _088_
*135 _089_
*136 _090_
*137 _091_
*138 _092_
*139 _093_
*140 _094_
*141 _095_
*142 _096_
*143 _097_
*144 _098_
*145 _099_
*146 _100_
*147 _101_
*148 _102_
*149 _103_
*150 _104_
*151 _105_
*152 _106_
*153 _107_
*154 _108_
*155 _109_
*156 _110_
*157 _111_
*158 _112_
*159 _113_
*160 _114_
*161 _115_
*162 _116_
*163 _117_
*164 _118_
*165 _119_
*166 _120_
*167 _121_
*168 _122_
*169 _123_
*170 _124_
*171 _125_
*172 _126_
*173 _127_
*174 _128_
*175 _129_
*176 _130_
*177 _131_
*178 _132_
*179 _133_
*180 _134_
*181 _135_
*182 _136_
*183 _137_
*184 _138_
*185 _139_
*186 _140_
*187 _141_
*188 _142_
*189 _143_
*190 _144_
*191 _145_
*192 _146_
*193 _147_
*194 _148_
*195 _149_
*196 _150_
*197 _151_
*198 _152_
*199 _153_
*200 _154_
*201 _155_
*202 _156_
*203 addr_counter\[0\]
*204 addr_counter\[1\]
*205 addr_counter\[2\]
*206 addr_counter\[3\]
*207 addr_counter\[4\]
*208 addr_counter\[5\]
*209 addr_counter\[6\]
*210 addr_counter\[7\]
*211 clknet_0_clk
*212 clknet_1_0__leaf_clk
*213 clknet_1_1__leaf_clk
*214 net1
*215 net10
*216 net11
*217 net12
*218 net13
*219 net14
*220 net15
*221 net16
*222 net17
*223 net18
*224 net19
*225 net2
*226 net20
*227 net21
*228 net22
*229 net23
*230 net24
*231 net25
*232 net26
*233 net28
*234 net29
*235 net3
*236 net30
*237 net31
*238 net32
*239 net33
*240 net34
*241 net35
*242 net36
*243 net37
*244 net38
*245 net39
*246 net4
*247 net40
*248 net5
*249 net56
*250 net57
*251 net58
*252 net59
*253 net6
*254 net60
*255 net7
*256 net8
*257 net9
*258 FILLER_0_100
*259 FILLER_0_103
*260 FILLER_0_106
*261 FILLER_0_109
*262 FILLER_0_113
*263 FILLER_0_116
*264 FILLER_0_119
*265 FILLER_0_12
*266 FILLER_0_122
*267 FILLER_0_125
*268 FILLER_0_128
*269 FILLER_0_131
*270 FILLER_0_134
*271 FILLER_0_137
*272 FILLER_0_141
*273 FILLER_0_144
*274 FILLER_0_147
*275 FILLER_0_15
*276 FILLER_0_150
*277 FILLER_0_153
*278 FILLER_0_156
*279 FILLER_0_159
*280 FILLER_0_162
*281 FILLER_0_165
*282 FILLER_0_169
*283 FILLER_0_172
*284 FILLER_0_175
*285 FILLER_0_178
*286 FILLER_0_18
*287 FILLER_0_181
*288 FILLER_0_184
*289 FILLER_0_187
*290 FILLER_0_190
*291 FILLER_0_193
*292 FILLER_0_197
*293 FILLER_0_200
*294 FILLER_0_203
*295 FILLER_0_206
*296 FILLER_0_209
*297 FILLER_0_21
*298 FILLER_0_212
*299 FILLER_0_215
*300 FILLER_0_218
*301 FILLER_0_221
*302 FILLER_0_225
*303 FILLER_0_228
*304 FILLER_0_231
*305 FILLER_0_234
*306 FILLER_0_237
*307 FILLER_0_24
*308 FILLER_0_240
*309 FILLER_0_243
*310 FILLER_0_246
*311 FILLER_0_249
*312 FILLER_0_253
*313 FILLER_0_256
*314 FILLER_0_259
*315 FILLER_0_262
*316 FILLER_0_265
*317 FILLER_0_268
*318 FILLER_0_27
*319 FILLER_0_271
*320 FILLER_0_274
*321 FILLER_0_277
*322 FILLER_0_281
*323 FILLER_0_284
*324 FILLER_0_287
*325 FILLER_0_29
*326 FILLER_0_290
*327 FILLER_0_293
*328 FILLER_0_296
*329 FILLER_0_299
*330 FILLER_0_3
*331 FILLER_0_302
*332 FILLER_0_305
*333 FILLER_0_309
*334 FILLER_0_312
*335 FILLER_0_315
*336 FILLER_0_318
*337 FILLER_0_32
*338 FILLER_0_321
*339 FILLER_0_324
*340 FILLER_0_327
*341 FILLER_0_330
*342 FILLER_0_333
*343 FILLER_0_35
*344 FILLER_0_38
*345 FILLER_0_41
*346 FILLER_0_44
*347 FILLER_0_47
*348 FILLER_0_50
*349 FILLER_0_53
*350 FILLER_0_57
*351 FILLER_0_6
*352 FILLER_0_60
*353 FILLER_0_63
*354 FILLER_0_66
*355 FILLER_0_69
*356 FILLER_0_72
*357 FILLER_0_75
*358 FILLER_0_78
*359 FILLER_0_81
*360 FILLER_0_85
*361 FILLER_0_88
*362 FILLER_0_9
*363 FILLER_0_91
*364 FILLER_0_94
*365 FILLER_0_97
*366 FILLER_10_100
*367 FILLER_10_103
*368 FILLER_10_106
*369 FILLER_10_109
*370 FILLER_10_112
*371 FILLER_10_115
*372 FILLER_10_118
*373 FILLER_10_12
*374 FILLER_10_121
*375 FILLER_10_124
*376 FILLER_10_127
*377 FILLER_10_130
*378 FILLER_10_133
*379 FILLER_10_136
*380 FILLER_10_139
*381 FILLER_10_141
*382 FILLER_10_144
*383 FILLER_10_147
*384 FILLER_10_15
*385 FILLER_10_150
*386 FILLER_10_153
*387 FILLER_10_156
*388 FILLER_10_159
*389 FILLER_10_162
*390 FILLER_10_165
*391 FILLER_10_168
*392 FILLER_10_171
*393 FILLER_10_174
*394 FILLER_10_177
*395 FILLER_10_18
*396 FILLER_10_180
*397 FILLER_10_183
*398 FILLER_10_186
*399 FILLER_10_189
*400 FILLER_10_192
*401 FILLER_10_195
*402 FILLER_10_197
*403 FILLER_10_200
*404 FILLER_10_203
*405 FILLER_10_206
*406 FILLER_10_209
*407 FILLER_10_21
*408 FILLER_10_212
*409 FILLER_10_215
*410 FILLER_10_218
*411 FILLER_10_221
*412 FILLER_10_224
*413 FILLER_10_227
*414 FILLER_10_230
*415 FILLER_10_233
*416 FILLER_10_236
*417 FILLER_10_239
*418 FILLER_10_24
*419 FILLER_10_242
*420 FILLER_10_245
*421 FILLER_10_248
*422 FILLER_10_251
*423 FILLER_10_253
*424 FILLER_10_256
*425 FILLER_10_259
*426 FILLER_10_262
*427 FILLER_10_265
*428 FILLER_10_268
*429 FILLER_10_27
*430 FILLER_10_271
*431 FILLER_10_274
*432 FILLER_10_277
*433 FILLER_10_280
*434 FILLER_10_283
*435 FILLER_10_286
*436 FILLER_10_289
*437 FILLER_10_29
*438 FILLER_10_292
*439 FILLER_10_295
*440 FILLER_10_298
*441 FILLER_10_3
*442 FILLER_10_301
*443 FILLER_10_304
*444 FILLER_10_307
*445 FILLER_10_309
*446 FILLER_10_312
*447 FILLER_10_315
*448 FILLER_10_318
*449 FILLER_10_32
*450 FILLER_10_321
*451 FILLER_10_324
*452 FILLER_10_327
*453 FILLER_10_330
*454 FILLER_10_333
*455 FILLER_10_35
*456 FILLER_10_38
*457 FILLER_10_41
*458 FILLER_10_44
*459 FILLER_10_47
*460 FILLER_10_50
*461 FILLER_10_53
*462 FILLER_10_56
*463 FILLER_10_59
*464 FILLER_10_6
*465 FILLER_10_62
*466 FILLER_10_65
*467 FILLER_10_68
*468 FILLER_10_71
*469 FILLER_10_74
*470 FILLER_10_77
*471 FILLER_10_80
*472 FILLER_10_83
*473 FILLER_10_85
*474 FILLER_10_88
*475 FILLER_10_9
*476 FILLER_10_91
*477 FILLER_10_94
*478 FILLER_10_97
*479 FILLER_11_102
*480 FILLER_11_105
*481 FILLER_11_108
*482 FILLER_11_111
*483 FILLER_11_113
*484 FILLER_11_116
*485 FILLER_11_119
*486 FILLER_11_12
*487 FILLER_11_122
*488 FILLER_11_125
*489 FILLER_11_128
*490 FILLER_11_131
*491 FILLER_11_134
*492 FILLER_11_137
*493 FILLER_11_140
*494 FILLER_11_143
*495 FILLER_11_146
*496 FILLER_11_149
*497 FILLER_11_15
*498 FILLER_11_152
*499 FILLER_11_155
*500 FILLER_11_158
*501 FILLER_11_161
*502 FILLER_11_164
*503 FILLER_11_167
*504 FILLER_11_169
*505 FILLER_11_172
*506 FILLER_11_175
*507 FILLER_11_178
*508 FILLER_11_18
*509 FILLER_11_181
*510 FILLER_11_184
*511 FILLER_11_187
*512 FILLER_11_190
*513 FILLER_11_193
*514 FILLER_11_196
*515 FILLER_11_199
*516 FILLER_11_202
*517 FILLER_11_205
*518 FILLER_11_208
*519 FILLER_11_21
*520 FILLER_11_211
*521 FILLER_11_214
*522 FILLER_11_217
*523 FILLER_11_220
*524 FILLER_11_223
*525 FILLER_11_225
*526 FILLER_11_228
*527 FILLER_11_231
*528 FILLER_11_234
*529 FILLER_11_237
*530 FILLER_11_24
*531 FILLER_11_240
*532 FILLER_11_243
*533 FILLER_11_246
*534 FILLER_11_249
*535 FILLER_11_252
*536 FILLER_11_255
*537 FILLER_11_258
*538 FILLER_11_261
*539 FILLER_11_264
*540 FILLER_11_267
*541 FILLER_11_27
*542 FILLER_11_270
*543 FILLER_11_273
*544 FILLER_11_276
*545 FILLER_11_279
*546 FILLER_11_281
*547 FILLER_11_284
*548 FILLER_11_287
*549 FILLER_11_290
*550 FILLER_11_293
*551 FILLER_11_296
*552 FILLER_11_299
*553 FILLER_11_3
*554 FILLER_11_30
*555 FILLER_11_302
*556 FILLER_11_305
*557 FILLER_11_308
*558 FILLER_11_311
*559 FILLER_11_314
*560 FILLER_11_317
*561 FILLER_11_320
*562 FILLER_11_323
*563 FILLER_11_326
*564 FILLER_11_329
*565 FILLER_11_33
*566 FILLER_11_332
*567 FILLER_11_36
*568 FILLER_11_39
*569 FILLER_11_42
*570 FILLER_11_45
*571 FILLER_11_48
*572 FILLER_11_51
*573 FILLER_11_54
*574 FILLER_11_57
*575 FILLER_11_6
*576 FILLER_11_60
*577 FILLER_11_63
*578 FILLER_11_66
*579 FILLER_11_69
*580 FILLER_11_72
*581 FILLER_11_75
*582 FILLER_11_78
*583 FILLER_11_81
*584 FILLER_11_84
*585 FILLER_11_87
*586 FILLER_11_9
*587 FILLER_11_90
*588 FILLER_11_93
*589 FILLER_11_96
*590 FILLER_11_99
*591 FILLER_12_100
*592 FILLER_12_103
*593 FILLER_12_106
*594 FILLER_12_109
*595 FILLER_12_112
*596 FILLER_12_115
*597 FILLER_12_118
*598 FILLER_12_12
*599 FILLER_12_121
*600 FILLER_12_124
*601 FILLER_12_127
*602 FILLER_12_130
*603 FILLER_12_133
*604 FILLER_12_136
*605 FILLER_12_139
*606 FILLER_12_141
*607 FILLER_12_144
*608 FILLER_12_147
*609 FILLER_12_15
*610 FILLER_12_150
*611 FILLER_12_153
*612 FILLER_12_156
*613 FILLER_12_159
*614 FILLER_12_162
*615 FILLER_12_165
*616 FILLER_12_168
*617 FILLER_12_171
*618 FILLER_12_174
*619 FILLER_12_177
*620 FILLER_12_18
*621 FILLER_12_180
*622 FILLER_12_183
*623 FILLER_12_186
*624 FILLER_12_189
*625 FILLER_12_192
*626 FILLER_12_195
*627 FILLER_12_197
*628 FILLER_12_200
*629 FILLER_12_203
*630 FILLER_12_206
*631 FILLER_12_209
*632 FILLER_12_21
*633 FILLER_12_212
*634 FILLER_12_215
*635 FILLER_12_218
*636 FILLER_12_221
*637 FILLER_12_224
*638 FILLER_12_227
*639 FILLER_12_230
*640 FILLER_12_233
*641 FILLER_12_236
*642 FILLER_12_239
*643 FILLER_12_24
*644 FILLER_12_242
*645 FILLER_12_245
*646 FILLER_12_248
*647 FILLER_12_251
*648 FILLER_12_253
*649 FILLER_12_256
*650 FILLER_12_259
*651 FILLER_12_262
*652 FILLER_12_265
*653 FILLER_12_268
*654 FILLER_12_27
*655 FILLER_12_271
*656 FILLER_12_274
*657 FILLER_12_277
*658 FILLER_12_280
*659 FILLER_12_283
*660 FILLER_12_286
*661 FILLER_12_289
*662 FILLER_12_29
*663 FILLER_12_292
*664 FILLER_12_295
*665 FILLER_12_298
*666 FILLER_12_3
*667 FILLER_12_301
*668 FILLER_12_304
*669 FILLER_12_307
*670 FILLER_12_309
*671 FILLER_12_312
*672 FILLER_12_315
*673 FILLER_12_318
*674 FILLER_12_32
*675 FILLER_12_321
*676 FILLER_12_324
*677 FILLER_12_327
*678 FILLER_12_330
*679 FILLER_12_333
*680 FILLER_12_35
*681 FILLER_12_38
*682 FILLER_12_41
*683 FILLER_12_44
*684 FILLER_12_47
*685 FILLER_12_50
*686 FILLER_12_53
*687 FILLER_12_56
*688 FILLER_12_59
*689 FILLER_12_6
*690 FILLER_12_62
*691 FILLER_12_65
*692 FILLER_12_68
*693 FILLER_12_71
*694 FILLER_12_74
*695 FILLER_12_77
*696 FILLER_12_80
*697 FILLER_12_83
*698 FILLER_12_85
*699 FILLER_12_88
*700 FILLER_12_9
*701 FILLER_12_91
*702 FILLER_12_94
*703 FILLER_12_97
*704 FILLER_13_102
*705 FILLER_13_105
*706 FILLER_13_108
*707 FILLER_13_111
*708 FILLER_13_113
*709 FILLER_13_116
*710 FILLER_13_119
*711 FILLER_13_12
*712 FILLER_13_122
*713 FILLER_13_125
*714 FILLER_13_128
*715 FILLER_13_131
*716 FILLER_13_134
*717 FILLER_13_137
*718 FILLER_13_140
*719 FILLER_13_143
*720 FILLER_13_146
*721 FILLER_13_149
*722 FILLER_13_15
*723 FILLER_13_152
*724 FILLER_13_155
*725 FILLER_13_158
*726 FILLER_13_161
*727 FILLER_13_164
*728 FILLER_13_167
*729 FILLER_13_169
*730 FILLER_13_172
*731 FILLER_13_175
*732 FILLER_13_178
*733 FILLER_13_18
*734 FILLER_13_181
*735 FILLER_13_184
*736 FILLER_13_187
*737 FILLER_13_190
*738 FILLER_13_193
*739 FILLER_13_196
*740 FILLER_13_199
*741 FILLER_13_202
*742 FILLER_13_205
*743 FILLER_13_208
*744 FILLER_13_21
*745 FILLER_13_211
*746 FILLER_13_214
*747 FILLER_13_217
*748 FILLER_13_220
*749 FILLER_13_223
*750 FILLER_13_225
*751 FILLER_13_228
*752 FILLER_13_231
*753 FILLER_13_234
*754 FILLER_13_237
*755 FILLER_13_24
*756 FILLER_13_240
*757 FILLER_13_243
*758 FILLER_13_246
*759 FILLER_13_249
*760 FILLER_13_252
*761 FILLER_13_255
*762 FILLER_13_258
*763 FILLER_13_261
*764 FILLER_13_264
*765 FILLER_13_267
*766 FILLER_13_27
*767 FILLER_13_270
*768 FILLER_13_273
*769 FILLER_13_276
*770 FILLER_13_279
*771 FILLER_13_281
*772 FILLER_13_284
*773 FILLER_13_287
*774 FILLER_13_290
*775 FILLER_13_293
*776 FILLER_13_296
*777 FILLER_13_299
*778 FILLER_13_3
*779 FILLER_13_30
*780 FILLER_13_302
*781 FILLER_13_305
*782 FILLER_13_308
*783 FILLER_13_311
*784 FILLER_13_314
*785 FILLER_13_317
*786 FILLER_13_320
*787 FILLER_13_323
*788 FILLER_13_326
*789 FILLER_13_329
*790 FILLER_13_33
*791 FILLER_13_332
*792 FILLER_13_36
*793 FILLER_13_39
*794 FILLER_13_42
*795 FILLER_13_45
*796 FILLER_13_48
*797 FILLER_13_51
*798 FILLER_13_54
*799 FILLER_13_57
*800 FILLER_13_6
*801 FILLER_13_60
*802 FILLER_13_63
*803 FILLER_13_66
*804 FILLER_13_69
*805 FILLER_13_72
*806 FILLER_13_75
*807 FILLER_13_78
*808 FILLER_13_81
*809 FILLER_13_84
*810 FILLER_13_87
*811 FILLER_13_9
*812 FILLER_13_90
*813 FILLER_13_93
*814 FILLER_13_96
*815 FILLER_13_99
*816 FILLER_14_100
*817 FILLER_14_103
*818 FILLER_14_106
*819 FILLER_14_109
*820 FILLER_14_112
*821 FILLER_14_115
*822 FILLER_14_118
*823 FILLER_14_12
*824 FILLER_14_121
*825 FILLER_14_124
*826 FILLER_14_127
*827 FILLER_14_130
*828 FILLER_14_133
*829 FILLER_14_136
*830 FILLER_14_139
*831 FILLER_14_141
*832 FILLER_14_144
*833 FILLER_14_147
*834 FILLER_14_15
*835 FILLER_14_150
*836 FILLER_14_153
*837 FILLER_14_156
*838 FILLER_14_159
*839 FILLER_14_162
*840 FILLER_14_165
*841 FILLER_14_168
*842 FILLER_14_171
*843 FILLER_14_174
*844 FILLER_14_177
*845 FILLER_14_18
*846 FILLER_14_180
*847 FILLER_14_183
*848 FILLER_14_186
*849 FILLER_14_189
*850 FILLER_14_192
*851 FILLER_14_195
*852 FILLER_14_197
*853 FILLER_14_200
*854 FILLER_14_203
*855 FILLER_14_206
*856 FILLER_14_209
*857 FILLER_14_21
*858 FILLER_14_212
*859 FILLER_14_215
*860 FILLER_14_218
*861 FILLER_14_221
*862 FILLER_14_224
*863 FILLER_14_227
*864 FILLER_14_230
*865 FILLER_14_233
*866 FILLER_14_236
*867 FILLER_14_239
*868 FILLER_14_24
*869 FILLER_14_242
*870 FILLER_14_245
*871 FILLER_14_248
*872 FILLER_14_251
*873 FILLER_14_253
*874 FILLER_14_256
*875 FILLER_14_259
*876 FILLER_14_262
*877 FILLER_14_265
*878 FILLER_14_268
*879 FILLER_14_27
*880 FILLER_14_271
*881 FILLER_14_274
*882 FILLER_14_277
*883 FILLER_14_280
*884 FILLER_14_283
*885 FILLER_14_286
*886 FILLER_14_289
*887 FILLER_14_29
*888 FILLER_14_292
*889 FILLER_14_295
*890 FILLER_14_298
*891 FILLER_14_3
*892 FILLER_14_301
*893 FILLER_14_304
*894 FILLER_14_307
*895 FILLER_14_309
*896 FILLER_14_312
*897 FILLER_14_315
*898 FILLER_14_318
*899 FILLER_14_32
*900 FILLER_14_321
*901 FILLER_14_324
*902 FILLER_14_327
*903 FILLER_14_330
*904 FILLER_14_333
*905 FILLER_14_35
*906 FILLER_14_38
*907 FILLER_14_41
*908 FILLER_14_44
*909 FILLER_14_47
*910 FILLER_14_50
*911 FILLER_14_53
*912 FILLER_14_56
*913 FILLER_14_59
*914 FILLER_14_6
*915 FILLER_14_62
*916 FILLER_14_65
*917 FILLER_14_68
*918 FILLER_14_71
*919 FILLER_14_74
*920 FILLER_14_77
*921 FILLER_14_80
*922 FILLER_14_83
*923 FILLER_14_85
*924 FILLER_14_88
*925 FILLER_14_9
*926 FILLER_14_91
*927 FILLER_14_94
*928 FILLER_14_97
*929 FILLER_15_102
*930 FILLER_15_105
*931 FILLER_15_108
*932 FILLER_15_111
*933 FILLER_15_113
*934 FILLER_15_116
*935 FILLER_15_119
*936 FILLER_15_12
*937 FILLER_15_122
*938 FILLER_15_125
*939 FILLER_15_128
*940 FILLER_15_131
*941 FILLER_15_134
*942 FILLER_15_137
*943 FILLER_15_140
*944 FILLER_15_143
*945 FILLER_15_146
*946 FILLER_15_149
*947 FILLER_15_15
*948 FILLER_15_152
*949 FILLER_15_155
*950 FILLER_15_158
*951 FILLER_15_161
*952 FILLER_15_164
*953 FILLER_15_167
*954 FILLER_15_169
*955 FILLER_15_172
*956 FILLER_15_175
*957 FILLER_15_178
*958 FILLER_15_18
*959 FILLER_15_181
*960 FILLER_15_184
*961 FILLER_15_187
*962 FILLER_15_190
*963 FILLER_15_193
*964 FILLER_15_196
*965 FILLER_15_199
*966 FILLER_15_202
*967 FILLER_15_205
*968 FILLER_15_208
*969 FILLER_15_21
*970 FILLER_15_211
*971 FILLER_15_214
*972 FILLER_15_217
*973 FILLER_15_220
*974 FILLER_15_223
*975 FILLER_15_225
*976 FILLER_15_228
*977 FILLER_15_231
*978 FILLER_15_234
*979 FILLER_15_237
*980 FILLER_15_24
*981 FILLER_15_240
*982 FILLER_15_243
*983 FILLER_15_246
*984 FILLER_15_249
*985 FILLER_15_252
*986 FILLER_15_255
*987 FILLER_15_258
*988 FILLER_15_261
*989 FILLER_15_264
*990 FILLER_15_267
*991 FILLER_15_27
*992 FILLER_15_270
*993 FILLER_15_273
*994 FILLER_15_276
*995 FILLER_15_279
*996 FILLER_15_281
*997 FILLER_15_284
*998 FILLER_15_287
*999 FILLER_15_290
*1000 FILLER_15_293
*1001 FILLER_15_296
*1002 FILLER_15_299
*1003 FILLER_15_3
*1004 FILLER_15_30
*1005 FILLER_15_302
*1006 FILLER_15_305
*1007 FILLER_15_308
*1008 FILLER_15_311
*1009 FILLER_15_314
*1010 FILLER_15_317
*1011 FILLER_15_320
*1012 FILLER_15_323
*1013 FILLER_15_326
*1014 FILLER_15_329
*1015 FILLER_15_33
*1016 FILLER_15_332
*1017 FILLER_15_36
*1018 FILLER_15_39
*1019 FILLER_15_42
*1020 FILLER_15_45
*1021 FILLER_15_48
*1022 FILLER_15_51
*1023 FILLER_15_54
*1024 FILLER_15_57
*1025 FILLER_15_6
*1026 FILLER_15_60
*1027 FILLER_15_63
*1028 FILLER_15_66
*1029 FILLER_15_69
*1030 FILLER_15_72
*1031 FILLER_15_75
*1032 FILLER_15_78
*1033 FILLER_15_81
*1034 FILLER_15_84
*1035 FILLER_15_87
*1036 FILLER_15_9
*1037 FILLER_15_90
*1038 FILLER_15_93
*1039 FILLER_15_96
*1040 FILLER_15_99
*1041 FILLER_16_100
*1042 FILLER_16_103
*1043 FILLER_16_106
*1044 FILLER_16_109
*1045 FILLER_16_112
*1046 FILLER_16_115
*1047 FILLER_16_118
*1048 FILLER_16_12
*1049 FILLER_16_121
*1050 FILLER_16_124
*1051 FILLER_16_127
*1052 FILLER_16_130
*1053 FILLER_16_133
*1054 FILLER_16_136
*1055 FILLER_16_139
*1056 FILLER_16_141
*1057 FILLER_16_144
*1058 FILLER_16_147
*1059 FILLER_16_15
*1060 FILLER_16_150
*1061 FILLER_16_153
*1062 FILLER_16_156
*1063 FILLER_16_159
*1064 FILLER_16_162
*1065 FILLER_16_165
*1066 FILLER_16_168
*1067 FILLER_16_171
*1068 FILLER_16_174
*1069 FILLER_16_177
*1070 FILLER_16_18
*1071 FILLER_16_180
*1072 FILLER_16_183
*1073 FILLER_16_186
*1074 FILLER_16_189
*1075 FILLER_16_192
*1076 FILLER_16_195
*1077 FILLER_16_197
*1078 FILLER_16_200
*1079 FILLER_16_203
*1080 FILLER_16_206
*1081 FILLER_16_209
*1082 FILLER_16_21
*1083 FILLER_16_212
*1084 FILLER_16_215
*1085 FILLER_16_218
*1086 FILLER_16_221
*1087 FILLER_16_224
*1088 FILLER_16_227
*1089 FILLER_16_230
*1090 FILLER_16_233
*1091 FILLER_16_236
*1092 FILLER_16_239
*1093 FILLER_16_24
*1094 FILLER_16_242
*1095 FILLER_16_245
*1096 FILLER_16_248
*1097 FILLER_16_251
*1098 FILLER_16_253
*1099 FILLER_16_256
*1100 FILLER_16_259
*1101 FILLER_16_262
*1102 FILLER_16_265
*1103 FILLER_16_268
*1104 FILLER_16_27
*1105 FILLER_16_271
*1106 FILLER_16_274
*1107 FILLER_16_277
*1108 FILLER_16_280
*1109 FILLER_16_283
*1110 FILLER_16_286
*1111 FILLER_16_289
*1112 FILLER_16_29
*1113 FILLER_16_292
*1114 FILLER_16_295
*1115 FILLER_16_298
*1116 FILLER_16_3
*1117 FILLER_16_301
*1118 FILLER_16_304
*1119 FILLER_16_307
*1120 FILLER_16_309
*1121 FILLER_16_312
*1122 FILLER_16_315
*1123 FILLER_16_318
*1124 FILLER_16_32
*1125 FILLER_16_321
*1126 FILLER_16_324
*1127 FILLER_16_327
*1128 FILLER_16_330
*1129 FILLER_16_333
*1130 FILLER_16_35
*1131 FILLER_16_38
*1132 FILLER_16_41
*1133 FILLER_16_44
*1134 FILLER_16_47
*1135 FILLER_16_50
*1136 FILLER_16_53
*1137 FILLER_16_56
*1138 FILLER_16_59
*1139 FILLER_16_6
*1140 FILLER_16_62
*1141 FILLER_16_65
*1142 FILLER_16_68
*1143 FILLER_16_71
*1144 FILLER_16_74
*1145 FILLER_16_77
*1146 FILLER_16_80
*1147 FILLER_16_83
*1148 FILLER_16_85
*1149 FILLER_16_88
*1150 FILLER_16_9
*1151 FILLER_16_91
*1152 FILLER_16_94
*1153 FILLER_16_97
*1154 FILLER_17_102
*1155 FILLER_17_105
*1156 FILLER_17_108
*1157 FILLER_17_111
*1158 FILLER_17_113
*1159 FILLER_17_116
*1160 FILLER_17_119
*1161 FILLER_17_12
*1162 FILLER_17_122
*1163 FILLER_17_125
*1164 FILLER_17_128
*1165 FILLER_17_131
*1166 FILLER_17_134
*1167 FILLER_17_137
*1168 FILLER_17_140
*1169 FILLER_17_143
*1170 FILLER_17_146
*1171 FILLER_17_149
*1172 FILLER_17_15
*1173 FILLER_17_152
*1174 FILLER_17_155
*1175 FILLER_17_158
*1176 FILLER_17_161
*1177 FILLER_17_164
*1178 FILLER_17_167
*1179 FILLER_17_169
*1180 FILLER_17_172
*1181 FILLER_17_175
*1182 FILLER_17_178
*1183 FILLER_17_18
*1184 FILLER_17_181
*1185 FILLER_17_184
*1186 FILLER_17_187
*1187 FILLER_17_190
*1188 FILLER_17_193
*1189 FILLER_17_196
*1190 FILLER_17_199
*1191 FILLER_17_202
*1192 FILLER_17_205
*1193 FILLER_17_208
*1194 FILLER_17_21
*1195 FILLER_17_211
*1196 FILLER_17_214
*1197 FILLER_17_217
*1198 FILLER_17_220
*1199 FILLER_17_223
*1200 FILLER_17_225
*1201 FILLER_17_228
*1202 FILLER_17_231
*1203 FILLER_17_234
*1204 FILLER_17_237
*1205 FILLER_17_24
*1206 FILLER_17_240
*1207 FILLER_17_243
*1208 FILLER_17_246
*1209 FILLER_17_249
*1210 FILLER_17_252
*1211 FILLER_17_255
*1212 FILLER_17_258
*1213 FILLER_17_261
*1214 FILLER_17_264
*1215 FILLER_17_267
*1216 FILLER_17_27
*1217 FILLER_17_270
*1218 FILLER_17_273
*1219 FILLER_17_276
*1220 FILLER_17_279
*1221 FILLER_17_281
*1222 FILLER_17_284
*1223 FILLER_17_287
*1224 FILLER_17_290
*1225 FILLER_17_293
*1226 FILLER_17_296
*1227 FILLER_17_299
*1228 FILLER_17_3
*1229 FILLER_17_30
*1230 FILLER_17_302
*1231 FILLER_17_305
*1232 FILLER_17_308
*1233 FILLER_17_311
*1234 FILLER_17_314
*1235 FILLER_17_317
*1236 FILLER_17_320
*1237 FILLER_17_323
*1238 FILLER_17_326
*1239 FILLER_17_329
*1240 FILLER_17_33
*1241 FILLER_17_332
*1242 FILLER_17_36
*1243 FILLER_17_39
*1244 FILLER_17_42
*1245 FILLER_17_45
*1246 FILLER_17_48
*1247 FILLER_17_51
*1248 FILLER_17_54
*1249 FILLER_17_57
*1250 FILLER_17_6
*1251 FILLER_17_60
*1252 FILLER_17_63
*1253 FILLER_17_66
*1254 FILLER_17_69
*1255 FILLER_17_72
*1256 FILLER_17_75
*1257 FILLER_17_78
*1258 FILLER_17_81
*1259 FILLER_17_84
*1260 FILLER_17_87
*1261 FILLER_17_9
*1262 FILLER_17_90
*1263 FILLER_17_93
*1264 FILLER_17_96
*1265 FILLER_17_99
*1266 FILLER_18_100
*1267 FILLER_18_103
*1268 FILLER_18_106
*1269 FILLER_18_109
*1270 FILLER_18_112
*1271 FILLER_18_115
*1272 FILLER_18_118
*1273 FILLER_18_12
*1274 FILLER_18_121
*1275 FILLER_18_124
*1276 FILLER_18_127
*1277 FILLER_18_130
*1278 FILLER_18_133
*1279 FILLER_18_136
*1280 FILLER_18_139
*1281 FILLER_18_141
*1282 FILLER_18_144
*1283 FILLER_18_147
*1284 FILLER_18_15
*1285 FILLER_18_150
*1286 FILLER_18_153
*1287 FILLER_18_156
*1288 FILLER_18_159
*1289 FILLER_18_162
*1290 FILLER_18_165
*1291 FILLER_18_168
*1292 FILLER_18_171
*1293 FILLER_18_174
*1294 FILLER_18_177
*1295 FILLER_18_18
*1296 FILLER_18_180
*1297 FILLER_18_183
*1298 FILLER_18_186
*1299 FILLER_18_189
*1300 FILLER_18_192
*1301 FILLER_18_195
*1302 FILLER_18_197
*1303 FILLER_18_200
*1304 FILLER_18_203
*1305 FILLER_18_206
*1306 FILLER_18_209
*1307 FILLER_18_21
*1308 FILLER_18_212
*1309 FILLER_18_215
*1310 FILLER_18_218
*1311 FILLER_18_221
*1312 FILLER_18_224
*1313 FILLER_18_227
*1314 FILLER_18_230
*1315 FILLER_18_233
*1316 FILLER_18_236
*1317 FILLER_18_239
*1318 FILLER_18_24
*1319 FILLER_18_242
*1320 FILLER_18_245
*1321 FILLER_18_248
*1322 FILLER_18_251
*1323 FILLER_18_253
*1324 FILLER_18_256
*1325 FILLER_18_259
*1326 FILLER_18_27
*1327 FILLER_18_283
*1328 FILLER_18_286
*1329 FILLER_18_29
*1330 FILLER_18_3
*1331 FILLER_18_301
*1332 FILLER_18_304
*1333 FILLER_18_307
*1334 FILLER_18_32
*1335 FILLER_18_329
*1336 FILLER_18_332
*1337 FILLER_18_35
*1338 FILLER_18_38
*1339 FILLER_18_41
*1340 FILLER_18_44
*1341 FILLER_18_47
*1342 FILLER_18_50
*1343 FILLER_18_53
*1344 FILLER_18_56
*1345 FILLER_18_59
*1346 FILLER_18_6
*1347 FILLER_18_62
*1348 FILLER_18_65
*1349 FILLER_18_68
*1350 FILLER_18_71
*1351 FILLER_18_74
*1352 FILLER_18_77
*1353 FILLER_18_80
*1354 FILLER_18_83
*1355 FILLER_18_85
*1356 FILLER_18_88
*1357 FILLER_18_9
*1358 FILLER_18_91
*1359 FILLER_18_94
*1360 FILLER_18_97
*1361 FILLER_19_101
*1362 FILLER_19_104
*1363 FILLER_19_107
*1364 FILLER_19_110
*1365 FILLER_19_113
*1366 FILLER_19_116
*1367 FILLER_19_119
*1368 FILLER_19_12
*1369 FILLER_19_122
*1370 FILLER_19_125
*1371 FILLER_19_128
*1372 FILLER_19_131
*1373 FILLER_19_134
*1374 FILLER_19_137
*1375 FILLER_19_140
*1376 FILLER_19_143
*1377 FILLER_19_146
*1378 FILLER_19_149
*1379 FILLER_19_15
*1380 FILLER_19_152
*1381 FILLER_19_155
*1382 FILLER_19_158
*1383 FILLER_19_161
*1384 FILLER_19_164
*1385 FILLER_19_167
*1386 FILLER_19_169
*1387 FILLER_19_172
*1388 FILLER_19_175
*1389 FILLER_19_178
*1390 FILLER_19_18
*1391 FILLER_19_181
*1392 FILLER_19_184
*1393 FILLER_19_187
*1394 FILLER_19_190
*1395 FILLER_19_193
*1396 FILLER_19_196
*1397 FILLER_19_199
*1398 FILLER_19_202
*1399 FILLER_19_205
*1400 FILLER_19_208
*1401 FILLER_19_21
*1402 FILLER_19_211
*1403 FILLER_19_214
*1404 FILLER_19_217
*1405 FILLER_19_220
*1406 FILLER_19_223
*1407 FILLER_19_238
*1408 FILLER_19_24
*1409 FILLER_19_241
*1410 FILLER_19_244
*1411 FILLER_19_247
*1412 FILLER_19_250
*1413 FILLER_19_253
*1414 FILLER_19_256
*1415 FILLER_19_259
*1416 FILLER_19_262
*1417 FILLER_19_265
*1418 FILLER_19_268
*1419 FILLER_19_27
*1420 FILLER_19_272
*1421 FILLER_19_275
*1422 FILLER_19_278
*1423 FILLER_19_281
*1424 FILLER_19_284
*1425 FILLER_19_295
*1426 FILLER_19_298
*1427 FILLER_19_3
*1428 FILLER_19_30
*1429 FILLER_19_301
*1430 FILLER_19_304
*1431 FILLER_19_307
*1432 FILLER_19_310
*1433 FILLER_19_324
*1434 FILLER_19_327
*1435 FILLER_19_33
*1436 FILLER_19_330
*1437 FILLER_19_333
*1438 FILLER_19_36
*1439 FILLER_19_39
*1440 FILLER_19_42
*1441 FILLER_19_45
*1442 FILLER_19_48
*1443 FILLER_19_51
*1444 FILLER_19_54
*1445 FILLER_19_6
*1446 FILLER_19_65
*1447 FILLER_19_68
*1448 FILLER_19_71
*1449 FILLER_19_74
*1450 FILLER_19_77
*1451 FILLER_19_80
*1452 FILLER_19_83
*1453 FILLER_19_86
*1454 FILLER_19_89
*1455 FILLER_19_9
*1456 FILLER_19_92
*1457 FILLER_19_95
*1458 FILLER_19_98
*1459 FILLER_1_102
*1460 FILLER_1_105
*1461 FILLER_1_108
*1462 FILLER_1_111
*1463 FILLER_1_113
*1464 FILLER_1_116
*1465 FILLER_1_119
*1466 FILLER_1_12
*1467 FILLER_1_122
*1468 FILLER_1_125
*1469 FILLER_1_128
*1470 FILLER_1_131
*1471 FILLER_1_134
*1472 FILLER_1_137
*1473 FILLER_1_140
*1474 FILLER_1_143
*1475 FILLER_1_146
*1476 FILLER_1_149
*1477 FILLER_1_15
*1478 FILLER_1_152
*1479 FILLER_1_155
*1480 FILLER_1_158
*1481 FILLER_1_161
*1482 FILLER_1_164
*1483 FILLER_1_167
*1484 FILLER_1_169
*1485 FILLER_1_172
*1486 FILLER_1_175
*1487 FILLER_1_178
*1488 FILLER_1_18
*1489 FILLER_1_181
*1490 FILLER_1_184
*1491 FILLER_1_187
*1492 FILLER_1_190
*1493 FILLER_1_193
*1494 FILLER_1_196
*1495 FILLER_1_199
*1496 FILLER_1_202
*1497 FILLER_1_205
*1498 FILLER_1_208
*1499 FILLER_1_21
*1500 FILLER_1_211
*1501 FILLER_1_214
*1502 FILLER_1_217
*1503 FILLER_1_220
*1504 FILLER_1_223
*1505 FILLER_1_225
*1506 FILLER_1_228
*1507 FILLER_1_231
*1508 FILLER_1_234
*1509 FILLER_1_237
*1510 FILLER_1_24
*1511 FILLER_1_240
*1512 FILLER_1_243
*1513 FILLER_1_246
*1514 FILLER_1_249
*1515 FILLER_1_252
*1516 FILLER_1_255
*1517 FILLER_1_258
*1518 FILLER_1_261
*1519 FILLER_1_264
*1520 FILLER_1_267
*1521 FILLER_1_27
*1522 FILLER_1_270
*1523 FILLER_1_273
*1524 FILLER_1_276
*1525 FILLER_1_279
*1526 FILLER_1_281
*1527 FILLER_1_284
*1528 FILLER_1_287
*1529 FILLER_1_290
*1530 FILLER_1_293
*1531 FILLER_1_296
*1532 FILLER_1_299
*1533 FILLER_1_3
*1534 FILLER_1_30
*1535 FILLER_1_302
*1536 FILLER_1_305
*1537 FILLER_1_308
*1538 FILLER_1_311
*1539 FILLER_1_314
*1540 FILLER_1_317
*1541 FILLER_1_320
*1542 FILLER_1_323
*1543 FILLER_1_326
*1544 FILLER_1_329
*1545 FILLER_1_33
*1546 FILLER_1_332
*1547 FILLER_1_36
*1548 FILLER_1_39
*1549 FILLER_1_42
*1550 FILLER_1_45
*1551 FILLER_1_48
*1552 FILLER_1_51
*1553 FILLER_1_54
*1554 FILLER_1_57
*1555 FILLER_1_6
*1556 FILLER_1_60
*1557 FILLER_1_63
*1558 FILLER_1_66
*1559 FILLER_1_69
*1560 FILLER_1_72
*1561 FILLER_1_75
*1562 FILLER_1_78
*1563 FILLER_1_81
*1564 FILLER_1_84
*1565 FILLER_1_87
*1566 FILLER_1_9
*1567 FILLER_1_90
*1568 FILLER_1_93
*1569 FILLER_1_96
*1570 FILLER_1_99
*1571 FILLER_20_106
*1572 FILLER_20_111
*1573 FILLER_20_114
*1574 FILLER_20_117
*1575 FILLER_20_12
*1576 FILLER_20_120
*1577 FILLER_20_123
*1578 FILLER_20_126
*1579 FILLER_20_129
*1580 FILLER_20_132
*1581 FILLER_20_135
*1582 FILLER_20_138
*1583 FILLER_20_141
*1584 FILLER_20_144
*1585 FILLER_20_147
*1586 FILLER_20_15
*1587 FILLER_20_150
*1588 FILLER_20_153
*1589 FILLER_20_156
*1590 FILLER_20_159
*1591 FILLER_20_162
*1592 FILLER_20_165
*1593 FILLER_20_168
*1594 FILLER_20_171
*1595 FILLER_20_174
*1596 FILLER_20_177
*1597 FILLER_20_18
*1598 FILLER_20_180
*1599 FILLER_20_183
*1600 FILLER_20_186
*1601 FILLER_20_189
*1602 FILLER_20_192
*1603 FILLER_20_195
*1604 FILLER_20_197
*1605 FILLER_20_200
*1606 FILLER_20_203
*1607 FILLER_20_206
*1608 FILLER_20_209
*1609 FILLER_20_21
*1610 FILLER_20_212
*1611 FILLER_20_215
*1612 FILLER_20_218
*1613 FILLER_20_221
*1614 FILLER_20_24
*1615 FILLER_20_241
*1616 FILLER_20_244
*1617 FILLER_20_247
*1618 FILLER_20_250
*1619 FILLER_20_253
*1620 FILLER_20_256
*1621 FILLER_20_259
*1622 FILLER_20_262
*1623 FILLER_20_265
*1624 FILLER_20_268
*1625 FILLER_20_27
*1626 FILLER_20_271
*1627 FILLER_20_274
*1628 FILLER_20_277
*1629 FILLER_20_280
*1630 FILLER_20_283
*1631 FILLER_20_286
*1632 FILLER_20_289
*1633 FILLER_20_29
*1634 FILLER_20_292
*1635 FILLER_20_295
*1636 FILLER_20_298
*1637 FILLER_20_3
*1638 FILLER_20_301
*1639 FILLER_20_304
*1640 FILLER_20_307
*1641 FILLER_20_309
*1642 FILLER_20_312
*1643 FILLER_20_315
*1644 FILLER_20_318
*1645 FILLER_20_32
*1646 FILLER_20_321
*1647 FILLER_20_324
*1648 FILLER_20_327
*1649 FILLER_20_330
*1650 FILLER_20_333
*1651 FILLER_20_35
*1652 FILLER_20_38
*1653 FILLER_20_41
*1654 FILLER_20_44
*1655 FILLER_20_47
*1656 FILLER_20_50
*1657 FILLER_20_59
*1658 FILLER_20_6
*1659 FILLER_20_62
*1660 FILLER_20_65
*1661 FILLER_20_68
*1662 FILLER_20_71
*1663 FILLER_20_74
*1664 FILLER_20_77
*1665 FILLER_20_80
*1666 FILLER_20_83
*1667 FILLER_20_85
*1668 FILLER_20_88
*1669 FILLER_20_9
*1670 FILLER_20_91
*1671 FILLER_21_111
*1672 FILLER_21_12
*1673 FILLER_21_122
*1674 FILLER_21_125
*1675 FILLER_21_128
*1676 FILLER_21_131
*1677 FILLER_21_140
*1678 FILLER_21_143
*1679 FILLER_21_146
*1680 FILLER_21_149
*1681 FILLER_21_15
*1682 FILLER_21_158
*1683 FILLER_21_161
*1684 FILLER_21_164
*1685 FILLER_21_167
*1686 FILLER_21_169
*1687 FILLER_21_172
*1688 FILLER_21_175
*1689 FILLER_21_178
*1690 FILLER_21_181
*1691 FILLER_21_184
*1692 FILLER_21_198
*1693 FILLER_21_201
*1694 FILLER_21_204
*1695 FILLER_21_207
*1696 FILLER_21_210
*1697 FILLER_21_213
*1698 FILLER_21_216
*1699 FILLER_21_219
*1700 FILLER_21_222
*1701 FILLER_21_225
*1702 FILLER_21_228
*1703 FILLER_21_231
*1704 FILLER_21_234
*1705 FILLER_21_237
*1706 FILLER_21_240
*1707 FILLER_21_243
*1708 FILLER_21_246
*1709 FILLER_21_249
*1710 FILLER_21_252
*1711 FILLER_21_255
*1712 FILLER_21_258
*1713 FILLER_21_266
*1714 FILLER_21_269
*1715 FILLER_21_274
*1716 FILLER_21_277
*1717 FILLER_21_281
*1718 FILLER_21_284
*1719 FILLER_21_293
*1720 FILLER_21_296
*1721 FILLER_21_299
*1722 FILLER_21_3
*1723 FILLER_21_302
*1724 FILLER_21_305
*1725 FILLER_21_308
*1726 FILLER_21_311
*1727 FILLER_21_314
*1728 FILLER_21_320
*1729 FILLER_21_323
*1730 FILLER_21_326
*1731 FILLER_21_329
*1732 FILLER_21_332
*1733 FILLER_21_35
*1734 FILLER_21_38
*1735 FILLER_21_41
*1736 FILLER_21_44
*1737 FILLER_21_47
*1738 FILLER_21_50
*1739 FILLER_21_57
*1740 FILLER_21_6
*1741 FILLER_21_66
*1742 FILLER_21_75
*1743 FILLER_21_78
*1744 FILLER_21_84
*1745 FILLER_21_87
*1746 FILLER_21_9
*1747 FILLER_21_90
*1748 FILLER_21_93
*1749 FILLER_21_99
*1750 FILLER_22_100
*1751 FILLER_22_103
*1752 FILLER_22_108
*1753 FILLER_22_111
*1754 FILLER_22_114
*1755 FILLER_22_117
*1756 FILLER_22_12
*1757 FILLER_22_120
*1758 FILLER_22_123
*1759 FILLER_22_126
*1760 FILLER_22_129
*1761 FILLER_22_132
*1762 FILLER_22_135
*1763 FILLER_22_138
*1764 FILLER_22_141
*1765 FILLER_22_15
*1766 FILLER_22_153
*1767 FILLER_22_156
*1768 FILLER_22_164
*1769 FILLER_22_167
*1770 FILLER_22_177
*1771 FILLER_22_18
*1772 FILLER_22_180
*1773 FILLER_22_185
*1774 FILLER_22_188
*1775 FILLER_22_191
*1776 FILLER_22_194
*1777 FILLER_22_197
*1778 FILLER_22_200
*1779 FILLER_22_203
*1780 FILLER_22_206
*1781 FILLER_22_209
*1782 FILLER_22_21
*1783 FILLER_22_212
*1784 FILLER_22_215
*1785 FILLER_22_218
*1786 FILLER_22_221
*1787 FILLER_22_224
*1788 FILLER_22_227
*1789 FILLER_22_230
*1790 FILLER_22_233
*1791 FILLER_22_236
*1792 FILLER_22_239
*1793 FILLER_22_242
*1794 FILLER_22_245
*1795 FILLER_22_248
*1796 FILLER_22_251
*1797 FILLER_22_274
*1798 FILLER_22_277
*1799 FILLER_22_280
*1800 FILLER_22_283
*1801 FILLER_22_286
*1802 FILLER_22_289
*1803 FILLER_22_29
*1804 FILLER_22_292
*1805 FILLER_22_3
*1806 FILLER_22_305
*1807 FILLER_22_32
*1808 FILLER_22_332
*1809 FILLER_22_35
*1810 FILLER_22_38
*1811 FILLER_22_41
*1812 FILLER_22_44
*1813 FILLER_22_47
*1814 FILLER_22_50
*1815 FILLER_22_53
*1816 FILLER_22_56
*1817 FILLER_22_59
*1818 FILLER_22_6
*1819 FILLER_22_62
*1820 FILLER_22_65
*1821 FILLER_22_68
*1822 FILLER_22_77
*1823 FILLER_22_80
*1824 FILLER_22_83
*1825 FILLER_22_85
*1826 FILLER_22_88
*1827 FILLER_22_9
*1828 FILLER_22_91
*1829 FILLER_22_94
*1830 FILLER_22_97
*1831 FILLER_23_102
*1832 FILLER_23_105
*1833 FILLER_23_108
*1834 FILLER_23_111
*1835 FILLER_23_113
*1836 FILLER_23_116
*1837 FILLER_23_119
*1838 FILLER_23_12
*1839 FILLER_23_122
*1840 FILLER_23_125
*1841 FILLER_23_128
*1842 FILLER_23_131
*1843 FILLER_23_134
*1844 FILLER_23_137
*1845 FILLER_23_140
*1846 FILLER_23_146
*1847 FILLER_23_15
*1848 FILLER_23_157
*1849 FILLER_23_160
*1850 FILLER_23_163
*1851 FILLER_23_166
*1852 FILLER_23_169
*1853 FILLER_23_172
*1854 FILLER_23_175
*1855 FILLER_23_192
*1856 FILLER_23_195
*1857 FILLER_23_198
*1858 FILLER_23_201
*1859 FILLER_23_204
*1860 FILLER_23_207
*1861 FILLER_23_210
*1862 FILLER_23_213
*1863 FILLER_23_216
*1864 FILLER_23_219
*1865 FILLER_23_222
*1866 FILLER_23_225
*1867 FILLER_23_228
*1868 FILLER_23_23
*1869 FILLER_23_231
*1870 FILLER_23_234
*1871 FILLER_23_237
*1872 FILLER_23_240
*1873 FILLER_23_243
*1874 FILLER_23_246
*1875 FILLER_23_249
*1876 FILLER_23_265
*1877 FILLER_23_268
*1878 FILLER_23_271
*1879 FILLER_23_274
*1880 FILLER_23_277
*1881 FILLER_23_281
*1882 FILLER_23_284
*1883 FILLER_23_287
*1884 FILLER_23_29
*1885 FILLER_23_290
*1886 FILLER_23_293
*1887 FILLER_23_296
*1888 FILLER_23_3
*1889 FILLER_23_302
*1890 FILLER_23_305
*1891 FILLER_23_308
*1892 FILLER_23_311
*1893 FILLER_23_314
*1894 FILLER_23_317
*1895 FILLER_23_32
*1896 FILLER_23_320
*1897 FILLER_23_323
*1898 FILLER_23_326
*1899 FILLER_23_329
*1900 FILLER_23_332
*1901 FILLER_23_35
*1902 FILLER_23_38
*1903 FILLER_23_41
*1904 FILLER_23_44
*1905 FILLER_23_47
*1906 FILLER_23_57
*1907 FILLER_23_6
*1908 FILLER_23_60
*1909 FILLER_23_63
*1910 FILLER_23_66
*1911 FILLER_23_75
*1912 FILLER_23_78
*1913 FILLER_23_81
*1914 FILLER_23_84
*1915 FILLER_23_87
*1916 FILLER_23_9
*1917 FILLER_23_90
*1918 FILLER_23_93
*1919 FILLER_23_96
*1920 FILLER_23_99
*1921 FILLER_24_105
*1922 FILLER_24_108
*1923 FILLER_24_111
*1924 FILLER_24_114
*1925 FILLER_24_117
*1926 FILLER_24_12
*1927 FILLER_24_126
*1928 FILLER_24_129
*1929 FILLER_24_132
*1930 FILLER_24_135
*1931 FILLER_24_138
*1932 FILLER_24_141
*1933 FILLER_24_144
*1934 FILLER_24_147
*1935 FILLER_24_15
*1936 FILLER_24_150
*1937 FILLER_24_153
*1938 FILLER_24_156
*1939 FILLER_24_159
*1940 FILLER_24_162
*1941 FILLER_24_169
*1942 FILLER_24_172
*1943 FILLER_24_175
*1944 FILLER_24_178
*1945 FILLER_24_18
*1946 FILLER_24_181
*1947 FILLER_24_184
*1948 FILLER_24_192
*1949 FILLER_24_195
*1950 FILLER_24_197
*1951 FILLER_24_200
*1952 FILLER_24_203
*1953 FILLER_24_21
*1954 FILLER_24_217
*1955 FILLER_24_230
*1956 FILLER_24_233
*1957 FILLER_24_236
*1958 FILLER_24_239
*1959 FILLER_24_242
*1960 FILLER_24_245
*1961 FILLER_24_248
*1962 FILLER_24_25
*1963 FILLER_24_251
*1964 FILLER_24_253
*1965 FILLER_24_256
*1966 FILLER_24_259
*1967 FILLER_24_262
*1968 FILLER_24_265
*1969 FILLER_24_268
*1970 FILLER_24_271
*1971 FILLER_24_274
*1972 FILLER_24_277
*1973 FILLER_24_280
*1974 FILLER_24_283
*1975 FILLER_24_286
*1976 FILLER_24_289
*1977 FILLER_24_29
*1978 FILLER_24_292
*1979 FILLER_24_295
*1980 FILLER_24_298
*1981 FILLER_24_3
*1982 FILLER_24_301
*1983 FILLER_24_304
*1984 FILLER_24_307
*1985 FILLER_24_309
*1986 FILLER_24_315
*1987 FILLER_24_318
*1988 FILLER_24_32
*1989 FILLER_24_321
*1990 FILLER_24_324
*1991 FILLER_24_327
*1992 FILLER_24_330
*1993 FILLER_24_333
*1994 FILLER_24_35
*1995 FILLER_24_38
*1996 FILLER_24_41
*1997 FILLER_24_44
*1998 FILLER_24_47
*1999 FILLER_24_50
*2000 FILLER_24_53
*2001 FILLER_24_56
*2002 FILLER_24_6
*2003 FILLER_24_65
*2004 FILLER_24_68
*2005 FILLER_24_71
*2006 FILLER_24_74
*2007 FILLER_24_77
*2008 FILLER_24_80
*2009 FILLER_24_83
*2010 FILLER_24_85
*2011 FILLER_24_88
*2012 FILLER_24_9
*2013 FILLER_24_91
*2014 FILLER_24_94
*2015 FILLER_25_111
*2016 FILLER_25_12
*2017 FILLER_25_124
*2018 FILLER_25_127
*2019 FILLER_25_130
*2020 FILLER_25_133
*2021 FILLER_25_136
*2022 FILLER_25_139
*2023 FILLER_25_142
*2024 FILLER_25_145
*2025 FILLER_25_148
*2026 FILLER_25_151
*2027 FILLER_25_154
*2028 FILLER_25_157
*2029 FILLER_25_160
*2030 FILLER_25_163
*2031 FILLER_25_166
*2032 FILLER_25_169
*2033 FILLER_25_172
*2034 FILLER_25_175
*2035 FILLER_25_178
*2036 FILLER_25_181
*2037 FILLER_25_184
*2038 FILLER_25_191
*2039 FILLER_25_194
*2040 FILLER_25_197
*2041 FILLER_25_200
*2042 FILLER_25_203
*2043 FILLER_25_206
*2044 FILLER_25_209
*2045 FILLER_25_228
*2046 FILLER_25_231
*2047 FILLER_25_234
*2048 FILLER_25_237
*2049 FILLER_25_240
*2050 FILLER_25_243
*2051 FILLER_25_246
*2052 FILLER_25_249
*2053 FILLER_25_252
*2054 FILLER_25_255
*2055 FILLER_25_258
*2056 FILLER_25_261
*2057 FILLER_25_264
*2058 FILLER_25_272
*2059 FILLER_25_275
*2060 FILLER_25_278
*2061 FILLER_25_281
*2062 FILLER_25_284
*2063 FILLER_25_287
*2064 FILLER_25_290
*2065 FILLER_25_3
*2066 FILLER_25_323
*2067 FILLER_25_326
*2068 FILLER_25_329
*2069 FILLER_25_332
*2070 FILLER_25_35
*2071 FILLER_25_38
*2072 FILLER_25_41
*2073 FILLER_25_44
*2074 FILLER_25_47
*2075 FILLER_25_50
*2076 FILLER_25_53
*2077 FILLER_25_57
*2078 FILLER_25_6
*2079 FILLER_25_72
*2080 FILLER_25_75
*2081 FILLER_25_78
*2082 FILLER_25_81
*2083 FILLER_25_84
*2084 FILLER_25_87
*2085 FILLER_25_9
*2086 FILLER_25_90
*2087 FILLER_25_93
*2088 FILLER_25_96
*2089 FILLER_26_103
*2090 FILLER_26_106
*2091 FILLER_26_112
*2092 FILLER_26_115
*2093 FILLER_26_118
*2094 FILLER_26_12
*2095 FILLER_26_121
*2096 FILLER_26_124
*2097 FILLER_26_127
*2098 FILLER_26_130
*2099 FILLER_26_133
*2100 FILLER_26_136
*2101 FILLER_26_139
*2102 FILLER_26_141
*2103 FILLER_26_147
*2104 FILLER_26_15
*2105 FILLER_26_150
*2106 FILLER_26_153
*2107 FILLER_26_156
*2108 FILLER_26_159
*2109 FILLER_26_162
*2110 FILLER_26_165
*2111 FILLER_26_168
*2112 FILLER_26_171
*2113 FILLER_26_18
*2114 FILLER_26_180
*2115 FILLER_26_183
*2116 FILLER_26_186
*2117 FILLER_26_189
*2118 FILLER_26_192
*2119 FILLER_26_195
*2120 FILLER_26_197
*2121 FILLER_26_200
*2122 FILLER_26_203
*2123 FILLER_26_206
*2124 FILLER_26_209
*2125 FILLER_26_21
*2126 FILLER_26_212
*2127 FILLER_26_215
*2128 FILLER_26_218
*2129 FILLER_26_221
*2130 FILLER_26_224
*2131 FILLER_26_227
*2132 FILLER_26_235
*2133 FILLER_26_238
*2134 FILLER_26_241
*2135 FILLER_26_244
*2136 FILLER_26_247
*2137 FILLER_26_250
*2138 FILLER_26_253
*2139 FILLER_26_281
*2140 FILLER_26_284
*2141 FILLER_26_287
*2142 FILLER_26_29
*2143 FILLER_26_290
*2144 FILLER_26_293
*2145 FILLER_26_296
*2146 FILLER_26_299
*2147 FILLER_26_3
*2148 FILLER_26_302
*2149 FILLER_26_305
*2150 FILLER_26_32
*2151 FILLER_26_332
*2152 FILLER_26_35
*2153 FILLER_26_38
*2154 FILLER_26_41
*2155 FILLER_26_44
*2156 FILLER_26_47
*2157 FILLER_26_50
*2158 FILLER_26_53
*2159 FILLER_26_56
*2160 FILLER_26_59
*2161 FILLER_26_6
*2162 FILLER_26_62
*2163 FILLER_26_65
*2164 FILLER_26_68
*2165 FILLER_26_71
*2166 FILLER_26_74
*2167 FILLER_26_77
*2168 FILLER_26_80
*2169 FILLER_26_83
*2170 FILLER_26_85
*2171 FILLER_26_88
*2172 FILLER_26_9
*2173 FILLER_26_91
*2174 FILLER_26_94
*2175 FILLER_26_97
*2176 FILLER_27_101
*2177 FILLER_27_104
*2178 FILLER_27_107
*2179 FILLER_27_110
*2180 FILLER_27_113
*2181 FILLER_27_116
*2182 FILLER_27_119
*2183 FILLER_27_12
*2184 FILLER_27_122
*2185 FILLER_27_125
*2186 FILLER_27_128
*2187 FILLER_27_131
*2188 FILLER_27_15
*2189 FILLER_27_169
*2190 FILLER_27_172
*2191 FILLER_27_175
*2192 FILLER_27_178
*2193 FILLER_27_18
*2194 FILLER_27_181
*2195 FILLER_27_184
*2196 FILLER_27_187
*2197 FILLER_27_190
*2198 FILLER_27_193
*2199 FILLER_27_196
*2200 FILLER_27_199
*2201 FILLER_27_202
*2202 FILLER_27_205
*2203 FILLER_27_208
*2204 FILLER_27_21
*2205 FILLER_27_211
*2206 FILLER_27_214
*2207 FILLER_27_217
*2208 FILLER_27_222
*2209 FILLER_27_225
*2210 FILLER_27_228
*2211 FILLER_27_231
*2212 FILLER_27_234
*2213 FILLER_27_237
*2214 FILLER_27_24
*2215 FILLER_27_240
*2216 FILLER_27_243
*2217 FILLER_27_246
*2218 FILLER_27_249
*2219 FILLER_27_252
*2220 FILLER_27_255
*2221 FILLER_27_258
*2222 FILLER_27_261
*2223 FILLER_27_264
*2224 FILLER_27_267
*2225 FILLER_27_270
*2226 FILLER_27_273
*2227 FILLER_27_276
*2228 FILLER_27_279
*2229 FILLER_27_28
*2230 FILLER_27_281
*2231 FILLER_27_284
*2232 FILLER_27_287
*2233 FILLER_27_290
*2234 FILLER_27_293
*2235 FILLER_27_3
*2236 FILLER_27_31
*2237 FILLER_27_324
*2238 FILLER_27_327
*2239 FILLER_27_330
*2240 FILLER_27_333
*2241 FILLER_27_34
*2242 FILLER_27_37
*2243 FILLER_27_40
*2244 FILLER_27_43
*2245 FILLER_27_46
*2246 FILLER_27_49
*2247 FILLER_27_6
*2248 FILLER_27_65
*2249 FILLER_27_68
*2250 FILLER_27_77
*2251 FILLER_27_80
*2252 FILLER_27_83
*2253 FILLER_27_86
*2254 FILLER_27_89
*2255 FILLER_27_9
*2256 FILLER_27_92
*2257 FILLER_27_95
*2258 FILLER_27_98
*2259 FILLER_28_109
*2260 FILLER_28_112
*2261 FILLER_28_115
*2262 FILLER_28_118
*2263 FILLER_28_12
*2264 FILLER_28_121
*2265 FILLER_28_124
*2266 FILLER_28_132
*2267 FILLER_28_135
*2268 FILLER_28_138
*2269 FILLER_28_141
*2270 FILLER_28_144
*2271 FILLER_28_147
*2272 FILLER_28_15
*2273 FILLER_28_153
*2274 FILLER_28_156
*2275 FILLER_28_159
*2276 FILLER_28_162
*2277 FILLER_28_165
*2278 FILLER_28_168
*2279 FILLER_28_171
*2280 FILLER_28_174
*2281 FILLER_28_177
*2282 FILLER_28_18
*2283 FILLER_28_187
*2284 FILLER_28_190
*2285 FILLER_28_193
*2286 FILLER_28_197
*2287 FILLER_28_200
*2288 FILLER_28_203
*2289 FILLER_28_206
*2290 FILLER_28_209
*2291 FILLER_28_21
*2292 FILLER_28_212
*2293 FILLER_28_215
*2294 FILLER_28_230
*2295 FILLER_28_233
*2296 FILLER_28_236
*2297 FILLER_28_239
*2298 FILLER_28_24
*2299 FILLER_28_242
*2300 FILLER_28_245
*2301 FILLER_28_248
*2302 FILLER_28_251
*2303 FILLER_28_253
*2304 FILLER_28_256
*2305 FILLER_28_259
*2306 FILLER_28_262
*2307 FILLER_28_265
*2308 FILLER_28_268
*2309 FILLER_28_27
*2310 FILLER_28_271
*2311 FILLER_28_274
*2312 FILLER_28_288
*2313 FILLER_28_29
*2314 FILLER_28_291
*2315 FILLER_28_294
*2316 FILLER_28_297
*2317 FILLER_28_3
*2318 FILLER_28_300
*2319 FILLER_28_303
*2320 FILLER_28_306
*2321 FILLER_28_309
*2322 FILLER_28_312
*2323 FILLER_28_315
*2324 FILLER_28_32
*2325 FILLER_28_320
*2326 FILLER_28_323
*2327 FILLER_28_326
*2328 FILLER_28_329
*2329 FILLER_28_332
*2330 FILLER_28_35
*2331 FILLER_28_38
*2332 FILLER_28_41
*2333 FILLER_28_44
*2334 FILLER_28_47
*2335 FILLER_28_50
*2336 FILLER_28_53
*2337 FILLER_28_6
*2338 FILLER_28_61
*2339 FILLER_28_69
*2340 FILLER_28_72
*2341 FILLER_28_75
*2342 FILLER_28_78
*2343 FILLER_28_81
*2344 FILLER_28_85
*2345 FILLER_28_88
*2346 FILLER_28_9
*2347 FILLER_28_91
*2348 FILLER_28_94
*2349 FILLER_29_101
*2350 FILLER_29_110
*2351 FILLER_29_113
*2352 FILLER_29_116
*2353 FILLER_29_119
*2354 FILLER_29_12
*2355 FILLER_29_122
*2356 FILLER_29_125
*2357 FILLER_29_128
*2358 FILLER_29_131
*2359 FILLER_29_134
*2360 FILLER_29_137
*2361 FILLER_29_140
*2362 FILLER_29_143
*2363 FILLER_29_146
*2364 FILLER_29_149
*2365 FILLER_29_15
*2366 FILLER_29_152
*2367 FILLER_29_155
*2368 FILLER_29_158
*2369 FILLER_29_161
*2370 FILLER_29_164
*2371 FILLER_29_167
*2372 FILLER_29_169
*2373 FILLER_29_172
*2374 FILLER_29_175
*2375 FILLER_29_184
*2376 FILLER_29_187
*2377 FILLER_29_197
*2378 FILLER_29_200
*2379 FILLER_29_209
*2380 FILLER_29_212
*2381 FILLER_29_221
*2382 FILLER_29_225
*2383 FILLER_29_228
*2384 FILLER_29_231
*2385 FILLER_29_234
*2386 FILLER_29_237
*2387 FILLER_29_240
*2388 FILLER_29_243
*2389 FILLER_29_246
*2390 FILLER_29_249
*2391 FILLER_29_252
*2392 FILLER_29_255
*2393 FILLER_29_258
*2394 FILLER_29_261
*2395 FILLER_29_264
*2396 FILLER_29_267
*2397 FILLER_29_270
*2398 FILLER_29_273
*2399 FILLER_29_276
*2400 FILLER_29_279
*2401 FILLER_29_281
*2402 FILLER_29_284
*2403 FILLER_29_287
*2404 FILLER_29_290
*2405 FILLER_29_293
*2406 FILLER_29_296
*2407 FILLER_29_299
*2408 FILLER_29_3
*2409 FILLER_29_302
*2410 FILLER_29_326
*2411 FILLER_29_329
*2412 FILLER_29_332
*2413 FILLER_29_36
*2414 FILLER_29_39
*2415 FILLER_29_42
*2416 FILLER_29_45
*2417 FILLER_29_48
*2418 FILLER_29_51
*2419 FILLER_29_54
*2420 FILLER_29_57
*2421 FILLER_29_6
*2422 FILLER_29_60
*2423 FILLER_29_63
*2424 FILLER_29_68
*2425 FILLER_29_71
*2426 FILLER_29_74
*2427 FILLER_29_77
*2428 FILLER_29_80
*2429 FILLER_29_83
*2430 FILLER_29_86
*2431 FILLER_29_89
*2432 FILLER_29_9
*2433 FILLER_29_92
*2434 FILLER_29_95
*2435 FILLER_29_98
*2436 FILLER_2_100
*2437 FILLER_2_103
*2438 FILLER_2_106
*2439 FILLER_2_109
*2440 FILLER_2_112
*2441 FILLER_2_115
*2442 FILLER_2_118
*2443 FILLER_2_12
*2444 FILLER_2_121
*2445 FILLER_2_124
*2446 FILLER_2_127
*2447 FILLER_2_130
*2448 FILLER_2_133
*2449 FILLER_2_136
*2450 FILLER_2_139
*2451 FILLER_2_141
*2452 FILLER_2_144
*2453 FILLER_2_147
*2454 FILLER_2_15
*2455 FILLER_2_150
*2456 FILLER_2_153
*2457 FILLER_2_156
*2458 FILLER_2_159
*2459 FILLER_2_162
*2460 FILLER_2_165
*2461 FILLER_2_168
*2462 FILLER_2_171
*2463 FILLER_2_174
*2464 FILLER_2_177
*2465 FILLER_2_18
*2466 FILLER_2_180
*2467 FILLER_2_183
*2468 FILLER_2_186
*2469 FILLER_2_189
*2470 FILLER_2_192
*2471 FILLER_2_195
*2472 FILLER_2_197
*2473 FILLER_2_200
*2474 FILLER_2_203
*2475 FILLER_2_206
*2476 FILLER_2_209
*2477 FILLER_2_21
*2478 FILLER_2_212
*2479 FILLER_2_215
*2480 FILLER_2_218
*2481 FILLER_2_221
*2482 FILLER_2_224
*2483 FILLER_2_227
*2484 FILLER_2_230
*2485 FILLER_2_233
*2486 FILLER_2_236
*2487 FILLER_2_239
*2488 FILLER_2_24
*2489 FILLER_2_242
*2490 FILLER_2_245
*2491 FILLER_2_248
*2492 FILLER_2_251
*2493 FILLER_2_253
*2494 FILLER_2_256
*2495 FILLER_2_259
*2496 FILLER_2_262
*2497 FILLER_2_265
*2498 FILLER_2_268
*2499 FILLER_2_27
*2500 FILLER_2_271
*2501 FILLER_2_274
*2502 FILLER_2_277
*2503 FILLER_2_280
*2504 FILLER_2_283
*2505 FILLER_2_286
*2506 FILLER_2_289
*2507 FILLER_2_29
*2508 FILLER_2_292
*2509 FILLER_2_295
*2510 FILLER_2_298
*2511 FILLER_2_3
*2512 FILLER_2_301
*2513 FILLER_2_304
*2514 FILLER_2_307
*2515 FILLER_2_309
*2516 FILLER_2_312
*2517 FILLER_2_315
*2518 FILLER_2_318
*2519 FILLER_2_32
*2520 FILLER_2_321
*2521 FILLER_2_324
*2522 FILLER_2_327
*2523 FILLER_2_330
*2524 FILLER_2_333
*2525 FILLER_2_35
*2526 FILLER_2_38
*2527 FILLER_2_41
*2528 FILLER_2_44
*2529 FILLER_2_47
*2530 FILLER_2_50
*2531 FILLER_2_53
*2532 FILLER_2_56
*2533 FILLER_2_59
*2534 FILLER_2_6
*2535 FILLER_2_62
*2536 FILLER_2_65
*2537 FILLER_2_68
*2538 FILLER_2_71
*2539 FILLER_2_74
*2540 FILLER_2_77
*2541 FILLER_2_80
*2542 FILLER_2_83
*2543 FILLER_2_85
*2544 FILLER_2_88
*2545 FILLER_2_9
*2546 FILLER_2_91
*2547 FILLER_2_94
*2548 FILLER_2_97
*2549 FILLER_30_115
*2550 FILLER_30_118
*2551 FILLER_30_12
*2552 FILLER_30_121
*2553 FILLER_30_124
*2554 FILLER_30_127
*2555 FILLER_30_130
*2556 FILLER_30_133
*2557 FILLER_30_136
*2558 FILLER_30_139
*2559 FILLER_30_141
*2560 FILLER_30_146
*2561 FILLER_30_149
*2562 FILLER_30_15
*2563 FILLER_30_152
*2564 FILLER_30_155
*2565 FILLER_30_158
*2566 FILLER_30_161
*2567 FILLER_30_164
*2568 FILLER_30_167
*2569 FILLER_30_170
*2570 FILLER_30_173
*2571 FILLER_30_176
*2572 FILLER_30_179
*2573 FILLER_30_18
*2574 FILLER_30_185
*2575 FILLER_30_195
*2576 FILLER_30_197
*2577 FILLER_30_200
*2578 FILLER_30_209
*2579 FILLER_30_212
*2580 FILLER_30_215
*2581 FILLER_30_218
*2582 FILLER_30_221
*2583 FILLER_30_224
*2584 FILLER_30_227
*2585 FILLER_30_230
*2586 FILLER_30_233
*2587 FILLER_30_236
*2588 FILLER_30_239
*2589 FILLER_30_242
*2590 FILLER_30_245
*2591 FILLER_30_248
*2592 FILLER_30_251
*2593 FILLER_30_253
*2594 FILLER_30_256
*2595 FILLER_30_274
*2596 FILLER_30_277
*2597 FILLER_30_280
*2598 FILLER_30_283
*2599 FILLER_30_286
*2600 FILLER_30_289
*2601 FILLER_30_292
*2602 FILLER_30_295
*2603 FILLER_30_3
*2604 FILLER_30_306
*2605 FILLER_30_309
*2606 FILLER_30_312
*2607 FILLER_30_318
*2608 FILLER_30_321
*2609 FILLER_30_324
*2610 FILLER_30_327
*2611 FILLER_30_330
*2612 FILLER_30_333
*2613 FILLER_30_38
*2614 FILLER_30_41
*2615 FILLER_30_44
*2616 FILLER_30_47
*2617 FILLER_30_50
*2618 FILLER_30_53
*2619 FILLER_30_56
*2620 FILLER_30_6
*2621 FILLER_30_65
*2622 FILLER_30_68
*2623 FILLER_30_71
*2624 FILLER_30_74
*2625 FILLER_30_77
*2626 FILLER_30_80
*2627 FILLER_30_83
*2628 FILLER_30_85
*2629 FILLER_30_88
*2630 FILLER_30_9
*2631 FILLER_30_91
*2632 FILLER_30_94
*2633 FILLER_30_97
*2634 FILLER_31_100
*2635 FILLER_31_106
*2636 FILLER_31_109
*2637 FILLER_31_113
*2638 FILLER_31_116
*2639 FILLER_31_119
*2640 FILLER_31_12
*2641 FILLER_31_122
*2642 FILLER_31_125
*2643 FILLER_31_128
*2644 FILLER_31_131
*2645 FILLER_31_134
*2646 FILLER_31_15
*2647 FILLER_31_154
*2648 FILLER_31_163
*2649 FILLER_31_166
*2650 FILLER_31_169
*2651 FILLER_31_18
*2652 FILLER_31_180
*2653 FILLER_31_183
*2654 FILLER_31_186
*2655 FILLER_31_189
*2656 FILLER_31_192
*2657 FILLER_31_195
*2658 FILLER_31_198
*2659 FILLER_31_201
*2660 FILLER_31_204
*2661 FILLER_31_207
*2662 FILLER_31_21
*2663 FILLER_31_210
*2664 FILLER_31_213
*2665 FILLER_31_216
*2666 FILLER_31_219
*2667 FILLER_31_222
*2668 FILLER_31_225
*2669 FILLER_31_228
*2670 FILLER_31_238
*2671 FILLER_31_24
*2672 FILLER_31_241
*2673 FILLER_31_244
*2674 FILLER_31_247
*2675 FILLER_31_250
*2676 FILLER_31_253
*2677 FILLER_31_256
*2678 FILLER_31_265
*2679 FILLER_31_268
*2680 FILLER_31_271
*2681 FILLER_31_277
*2682 FILLER_31_281
*2683 FILLER_31_284
*2684 FILLER_31_287
*2685 FILLER_31_29
*2686 FILLER_31_290
*2687 FILLER_31_293
*2688 FILLER_31_296
*2689 FILLER_31_3
*2690 FILLER_31_302
*2691 FILLER_31_305
*2692 FILLER_31_308
*2693 FILLER_31_311
*2694 FILLER_31_314
*2695 FILLER_31_317
*2696 FILLER_31_32
*2697 FILLER_31_320
*2698 FILLER_31_323
*2699 FILLER_31_326
*2700 FILLER_31_329
*2701 FILLER_31_332
*2702 FILLER_31_35
*2703 FILLER_31_38
*2704 FILLER_31_41
*2705 FILLER_31_44
*2706 FILLER_31_47
*2707 FILLER_31_50
*2708 FILLER_31_53
*2709 FILLER_31_57
*2710 FILLER_31_6
*2711 FILLER_31_79
*2712 FILLER_31_82
*2713 FILLER_31_85
*2714 FILLER_31_88
*2715 FILLER_31_9
*2716 FILLER_31_91
*2717 FILLER_31_94
*2718 FILLER_31_97
*2719 FILLER_32_106
*2720 FILLER_32_109
*2721 FILLER_32_112
*2722 FILLER_32_115
*2723 FILLER_32_118
*2724 FILLER_32_12
*2725 FILLER_32_121
*2726 FILLER_32_124
*2727 FILLER_32_137
*2728 FILLER_32_141
*2729 FILLER_32_144
*2730 FILLER_32_147
*2731 FILLER_32_15
*2732 FILLER_32_150
*2733 FILLER_32_153
*2734 FILLER_32_156
*2735 FILLER_32_159
*2736 FILLER_32_162
*2737 FILLER_32_179
*2738 FILLER_32_18
*2739 FILLER_32_182
*2740 FILLER_32_185
*2741 FILLER_32_188
*2742 FILLER_32_192
*2743 FILLER_32_195
*2744 FILLER_32_197
*2745 FILLER_32_200
*2746 FILLER_32_203
*2747 FILLER_32_206
*2748 FILLER_32_209
*2749 FILLER_32_21
*2750 FILLER_32_212
*2751 FILLER_32_215
*2752 FILLER_32_218
*2753 FILLER_32_221
*2754 FILLER_32_224
*2755 FILLER_32_227
*2756 FILLER_32_230
*2757 FILLER_32_233
*2758 FILLER_32_236
*2759 FILLER_32_239
*2760 FILLER_32_24
*2761 FILLER_32_242
*2762 FILLER_32_245
*2763 FILLER_32_248
*2764 FILLER_32_251
*2765 FILLER_32_27
*2766 FILLER_32_274
*2767 FILLER_32_277
*2768 FILLER_32_280
*2769 FILLER_32_29
*2770 FILLER_32_292
*2771 FILLER_32_295
*2772 FILLER_32_298
*2773 FILLER_32_3
*2774 FILLER_32_301
*2775 FILLER_32_304
*2776 FILLER_32_307
*2777 FILLER_32_309
*2778 FILLER_32_312
*2779 FILLER_32_315
*2780 FILLER_32_318
*2781 FILLER_32_32
*2782 FILLER_32_321
*2783 FILLER_32_324
*2784 FILLER_32_327
*2785 FILLER_32_330
*2786 FILLER_32_333
*2787 FILLER_32_35
*2788 FILLER_32_38
*2789 FILLER_32_41
*2790 FILLER_32_44
*2791 FILLER_32_47
*2792 FILLER_32_50
*2793 FILLER_32_53
*2794 FILLER_32_6
*2795 FILLER_32_65
*2796 FILLER_32_68
*2797 FILLER_32_71
*2798 FILLER_32_74
*2799 FILLER_32_77
*2800 FILLER_32_80
*2801 FILLER_32_83
*2802 FILLER_32_85
*2803 FILLER_32_88
*2804 FILLER_32_9
*2805 FILLER_32_91
*2806 FILLER_32_94
*2807 FILLER_33_107
*2808 FILLER_33_110
*2809 FILLER_33_113
*2810 FILLER_33_116
*2811 FILLER_33_119
*2812 FILLER_33_12
*2813 FILLER_33_122
*2814 FILLER_33_125
*2815 FILLER_33_128
*2816 FILLER_33_136
*2817 FILLER_33_139
*2818 FILLER_33_142
*2819 FILLER_33_145
*2820 FILLER_33_148
*2821 FILLER_33_15
*2822 FILLER_33_151
*2823 FILLER_33_154
*2824 FILLER_33_157
*2825 FILLER_33_160
*2826 FILLER_33_163
*2827 FILLER_33_166
*2828 FILLER_33_169
*2829 FILLER_33_172
*2830 FILLER_33_175
*2831 FILLER_33_178
*2832 FILLER_33_181
*2833 FILLER_33_184
*2834 FILLER_33_188
*2835 FILLER_33_191
*2836 FILLER_33_194
*2837 FILLER_33_197
*2838 FILLER_33_200
*2839 FILLER_33_203
*2840 FILLER_33_206
*2841 FILLER_33_209
*2842 FILLER_33_212
*2843 FILLER_33_215
*2844 FILLER_33_218
*2845 FILLER_33_221
*2846 FILLER_33_225
*2847 FILLER_33_228
*2848 FILLER_33_23
*2849 FILLER_33_231
*2850 FILLER_33_234
*2851 FILLER_33_237
*2852 FILLER_33_240
*2853 FILLER_33_243
*2854 FILLER_33_246
*2855 FILLER_33_249
*2856 FILLER_33_252
*2857 FILLER_33_255
*2858 FILLER_33_258
*2859 FILLER_33_261
*2860 FILLER_33_264
*2861 FILLER_33_267
*2862 FILLER_33_270
*2863 FILLER_33_273
*2864 FILLER_33_276
*2865 FILLER_33_279
*2866 FILLER_33_281
*2867 FILLER_33_284
*2868 FILLER_33_287
*2869 FILLER_33_290
*2870 FILLER_33_3
*2871 FILLER_33_320
*2872 FILLER_33_323
*2873 FILLER_33_326
*2874 FILLER_33_329
*2875 FILLER_33_332
*2876 FILLER_33_34
*2877 FILLER_33_37
*2878 FILLER_33_40
*2879 FILLER_33_43
*2880 FILLER_33_46
*2881 FILLER_33_49
*2882 FILLER_33_52
*2883 FILLER_33_55
*2884 FILLER_33_57
*2885 FILLER_33_6
*2886 FILLER_33_60
*2887 FILLER_33_63
*2888 FILLER_33_66
*2889 FILLER_33_69
*2890 FILLER_33_72
*2891 FILLER_33_75
*2892 FILLER_33_78
*2893 FILLER_33_81
*2894 FILLER_33_84
*2895 FILLER_33_87
*2896 FILLER_33_9
*2897 FILLER_33_90
*2898 FILLER_33_93
*2899 FILLER_33_96
*2900 FILLER_33_99
*2901 FILLER_34_100
*2902 FILLER_34_103
*2903 FILLER_34_106
*2904 FILLER_34_109
*2905 FILLER_34_112
*2906 FILLER_34_115
*2907 FILLER_34_118
*2908 FILLER_34_12
*2909 FILLER_34_121
*2910 FILLER_34_124
*2911 FILLER_34_127
*2912 FILLER_34_130
*2913 FILLER_34_133
*2914 FILLER_34_136
*2915 FILLER_34_139
*2916 FILLER_34_141
*2917 FILLER_34_144
*2918 FILLER_34_147
*2919 FILLER_34_15
*2920 FILLER_34_150
*2921 FILLER_34_153
*2922 FILLER_34_156
*2923 FILLER_34_159
*2924 FILLER_34_162
*2925 FILLER_34_165
*2926 FILLER_34_168
*2927 FILLER_34_171
*2928 FILLER_34_174
*2929 FILLER_34_177
*2930 FILLER_34_18
*2931 FILLER_34_187
*2932 FILLER_34_190
*2933 FILLER_34_193
*2934 FILLER_34_197
*2935 FILLER_34_200
*2936 FILLER_34_203
*2937 FILLER_34_206
*2938 FILLER_34_209
*2939 FILLER_34_21
*2940 FILLER_34_219
*2941 FILLER_34_222
*2942 FILLER_34_225
*2943 FILLER_34_228
*2944 FILLER_34_231
*2945 FILLER_34_234
*2946 FILLER_34_237
*2947 FILLER_34_24
*2948 FILLER_34_240
*2949 FILLER_34_243
*2950 FILLER_34_246
*2951 FILLER_34_249
*2952 FILLER_34_253
*2953 FILLER_34_256
*2954 FILLER_34_259
*2955 FILLER_34_262
*2956 FILLER_34_265
*2957 FILLER_34_268
*2958 FILLER_34_27
*2959 FILLER_34_271
*2960 FILLER_34_274
*2961 FILLER_34_277
*2962 FILLER_34_280
*2963 FILLER_34_283
*2964 FILLER_34_286
*2965 FILLER_34_289
*2966 FILLER_34_29
*2967 FILLER_34_292
*2968 FILLER_34_295
*2969 FILLER_34_3
*2970 FILLER_34_302
*2971 FILLER_34_306
*2972 FILLER_34_32
*2973 FILLER_34_329
*2974 FILLER_34_332
*2975 FILLER_34_35
*2976 FILLER_34_38
*2977 FILLER_34_41
*2978 FILLER_34_44
*2979 FILLER_34_47
*2980 FILLER_34_50
*2981 FILLER_34_53
*2982 FILLER_34_56
*2983 FILLER_34_59
*2984 FILLER_34_6
*2985 FILLER_34_63
*2986 FILLER_34_70
*2987 FILLER_34_73
*2988 FILLER_34_76
*2989 FILLER_34_79
*2990 FILLER_34_82
*2991 FILLER_34_85
*2992 FILLER_34_88
*2993 FILLER_34_9
*2994 FILLER_34_91
*2995 FILLER_34_94
*2996 FILLER_34_97
*2997 FILLER_35_109
*2998 FILLER_35_113
*2999 FILLER_35_116
*3000 FILLER_35_119
*3001 FILLER_35_12
*3002 FILLER_35_122
*3003 FILLER_35_125
*3004 FILLER_35_128
*3005 FILLER_35_131
*3006 FILLER_35_134
*3007 FILLER_35_137
*3008 FILLER_35_140
*3009 FILLER_35_143
*3010 FILLER_35_146
*3011 FILLER_35_149
*3012 FILLER_35_15
*3013 FILLER_35_152
*3014 FILLER_35_155
*3015 FILLER_35_158
*3016 FILLER_35_166
*3017 FILLER_35_169
*3018 FILLER_35_172
*3019 FILLER_35_175
*3020 FILLER_35_178
*3021 FILLER_35_18
*3022 FILLER_35_183
*3023 FILLER_35_186
*3024 FILLER_35_189
*3025 FILLER_35_192
*3026 FILLER_35_195
*3027 FILLER_35_198
*3028 FILLER_35_201
*3029 FILLER_35_204
*3030 FILLER_35_207
*3031 FILLER_35_21
*3032 FILLER_35_210
*3033 FILLER_35_213
*3034 FILLER_35_216
*3035 FILLER_35_219
*3036 FILLER_35_222
*3037 FILLER_35_225
*3038 FILLER_35_228
*3039 FILLER_35_231
*3040 FILLER_35_24
*3041 FILLER_35_262
*3042 FILLER_35_265
*3043 FILLER_35_268
*3044 FILLER_35_27
*3045 FILLER_35_271
*3046 FILLER_35_274
*3047 FILLER_35_277
*3048 FILLER_35_281
*3049 FILLER_35_284
*3050 FILLER_35_287
*3051 FILLER_35_290
*3052 FILLER_35_293
*3053 FILLER_35_296
*3054 FILLER_35_299
*3055 FILLER_35_3
*3056 FILLER_35_30
*3057 FILLER_35_302
*3058 FILLER_35_305
*3059 FILLER_35_308
*3060 FILLER_35_311
*3061 FILLER_35_314
*3062 FILLER_35_326
*3063 FILLER_35_329
*3064 FILLER_35_33
*3065 FILLER_35_332
*3066 FILLER_35_36
*3067 FILLER_35_39
*3068 FILLER_35_42
*3069 FILLER_35_45
*3070 FILLER_35_48
*3071 FILLER_35_51
*3072 FILLER_35_54
*3073 FILLER_35_57
*3074 FILLER_35_6
*3075 FILLER_35_60
*3076 FILLER_35_63
*3077 FILLER_35_66
*3078 FILLER_35_69
*3079 FILLER_35_75
*3080 FILLER_35_78
*3081 FILLER_35_81
*3082 FILLER_35_84
*3083 FILLER_35_87
*3084 FILLER_35_9
*3085 FILLER_35_90
*3086 FILLER_35_93
*3087 FILLER_35_96
*3088 FILLER_35_99
*3089 FILLER_36_100
*3090 FILLER_36_103
*3091 FILLER_36_106
*3092 FILLER_36_109
*3093 FILLER_36_112
*3094 FILLER_36_115
*3095 FILLER_36_118
*3096 FILLER_36_12
*3097 FILLER_36_121
*3098 FILLER_36_124
*3099 FILLER_36_127
*3100 FILLER_36_130
*3101 FILLER_36_139
*3102 FILLER_36_141
*3103 FILLER_36_144
*3104 FILLER_36_147
*3105 FILLER_36_15
*3106 FILLER_36_150
*3107 FILLER_36_153
*3108 FILLER_36_156
*3109 FILLER_36_159
*3110 FILLER_36_162
*3111 FILLER_36_165
*3112 FILLER_36_168
*3113 FILLER_36_171
*3114 FILLER_36_174
*3115 FILLER_36_177
*3116 FILLER_36_18
*3117 FILLER_36_180
*3118 FILLER_36_183
*3119 FILLER_36_193
*3120 FILLER_36_197
*3121 FILLER_36_200
*3122 FILLER_36_203
*3123 FILLER_36_206
*3124 FILLER_36_209
*3125 FILLER_36_21
*3126 FILLER_36_212
*3127 FILLER_36_215
*3128 FILLER_36_218
*3129 FILLER_36_221
*3130 FILLER_36_224
*3131 FILLER_36_227
*3132 FILLER_36_230
*3133 FILLER_36_233
*3134 FILLER_36_236
*3135 FILLER_36_239
*3136 FILLER_36_24
*3137 FILLER_36_242
*3138 FILLER_36_245
*3139 FILLER_36_248
*3140 FILLER_36_251
*3141 FILLER_36_253
*3142 FILLER_36_256
*3143 FILLER_36_259
*3144 FILLER_36_262
*3145 FILLER_36_27
*3146 FILLER_36_288
*3147 FILLER_36_29
*3148 FILLER_36_291
*3149 FILLER_36_294
*3150 FILLER_36_3
*3151 FILLER_36_303
*3152 FILLER_36_306
*3153 FILLER_36_309
*3154 FILLER_36_312
*3155 FILLER_36_315
*3156 FILLER_36_319
*3157 FILLER_36_32
*3158 FILLER_36_322
*3159 FILLER_36_325
*3160 FILLER_36_328
*3161 FILLER_36_331
*3162 FILLER_36_334
*3163 FILLER_36_35
*3164 FILLER_36_38
*3165 FILLER_36_41
*3166 FILLER_36_44
*3167 FILLER_36_47
*3168 FILLER_36_50
*3169 FILLER_36_53
*3170 FILLER_36_56
*3171 FILLER_36_59
*3172 FILLER_36_6
*3173 FILLER_36_62
*3174 FILLER_36_65
*3175 FILLER_36_68
*3176 FILLER_36_77
*3177 FILLER_36_80
*3178 FILLER_36_83
*3179 FILLER_36_85
*3180 FILLER_36_88
*3181 FILLER_36_9
*3182 FILLER_36_91
*3183 FILLER_36_94
*3184 FILLER_36_97
*3185 FILLER_37_102
*3186 FILLER_37_105
*3187 FILLER_37_108
*3188 FILLER_37_111
*3189 FILLER_37_113
*3190 FILLER_37_116
*3191 FILLER_37_119
*3192 FILLER_37_12
*3193 FILLER_37_122
*3194 FILLER_37_125
*3195 FILLER_37_128
*3196 FILLER_37_138
*3197 FILLER_37_141
*3198 FILLER_37_144
*3199 FILLER_37_147
*3200 FILLER_37_15
*3201 FILLER_37_150
*3202 FILLER_37_153
*3203 FILLER_37_156
*3204 FILLER_37_159
*3205 FILLER_37_162
*3206 FILLER_37_165
*3207 FILLER_37_169
*3208 FILLER_37_172
*3209 FILLER_37_175
*3210 FILLER_37_178
*3211 FILLER_37_18
*3212 FILLER_37_181
*3213 FILLER_37_184
*3214 FILLER_37_187
*3215 FILLER_37_190
*3216 FILLER_37_193
*3217 FILLER_37_196
*3218 FILLER_37_199
*3219 FILLER_37_202
*3220 FILLER_37_205
*3221 FILLER_37_208
*3222 FILLER_37_21
*3223 FILLER_37_211
*3224 FILLER_37_214
*3225 FILLER_37_217
*3226 FILLER_37_220
*3227 FILLER_37_223
*3228 FILLER_37_225
*3229 FILLER_37_228
*3230 FILLER_37_231
*3231 FILLER_37_234
*3232 FILLER_37_237
*3233 FILLER_37_24
*3234 FILLER_37_240
*3235 FILLER_37_243
*3236 FILLER_37_246
*3237 FILLER_37_249
*3238 FILLER_37_252
*3239 FILLER_37_255
*3240 FILLER_37_258
*3241 FILLER_37_261
*3242 FILLER_37_264
*3243 FILLER_37_27
*3244 FILLER_37_276
*3245 FILLER_37_279
*3246 FILLER_37_281
*3247 FILLER_37_284
*3248 FILLER_37_287
*3249 FILLER_37_290
*3250 FILLER_37_293
*3251 FILLER_37_296
*3252 FILLER_37_299
*3253 FILLER_37_3
*3254 FILLER_37_30
*3255 FILLER_37_302
*3256 FILLER_37_328
*3257 FILLER_37_33
*3258 FILLER_37_331
*3259 FILLER_37_334
*3260 FILLER_37_36
*3261 FILLER_37_39
*3262 FILLER_37_42
*3263 FILLER_37_45
*3264 FILLER_37_48
*3265 FILLER_37_51
*3266 FILLER_37_54
*3267 FILLER_37_57
*3268 FILLER_37_6
*3269 FILLER_37_60
*3270 FILLER_37_63
*3271 FILLER_37_66
*3272 FILLER_37_69
*3273 FILLER_37_72
*3274 FILLER_37_75
*3275 FILLER_37_78
*3276 FILLER_37_81
*3277 FILLER_37_84
*3278 FILLER_37_87
*3279 FILLER_37_9
*3280 FILLER_37_90
*3281 FILLER_37_93
*3282 FILLER_37_96
*3283 FILLER_37_99
*3284 FILLER_38_100
*3285 FILLER_38_106
*3286 FILLER_38_113
*3287 FILLER_38_118
*3288 FILLER_38_12
*3289 FILLER_38_124
*3290 FILLER_38_130
*3291 FILLER_38_136
*3292 FILLER_38_141
*3293 FILLER_38_144
*3294 FILLER_38_148
*3295 FILLER_38_15
*3296 FILLER_38_154
*3297 FILLER_38_160
*3298 FILLER_38_166
*3299 FILLER_38_172
*3300 FILLER_38_178
*3301 FILLER_38_18
*3302 FILLER_38_184
*3303 FILLER_38_190
*3304 FILLER_38_197
*3305 FILLER_38_202
*3306 FILLER_38_205
*3307 FILLER_38_208
*3308 FILLER_38_21
*3309 FILLER_38_211
*3310 FILLER_38_214
*3311 FILLER_38_217
*3312 FILLER_38_220
*3313 FILLER_38_223
*3314 FILLER_38_225
*3315 FILLER_38_228
*3316 FILLER_38_231
*3317 FILLER_38_234
*3318 FILLER_38_237
*3319 FILLER_38_24
*3320 FILLER_38_240
*3321 FILLER_38_243
*3322 FILLER_38_246
*3323 FILLER_38_249
*3324 FILLER_38_256
*3325 FILLER_38_262
*3326 FILLER_38_268
*3327 FILLER_38_27
*3328 FILLER_38_274
*3329 FILLER_38_281
*3330 FILLER_38_286
*3331 FILLER_38_29
*3332 FILLER_38_292
*3333 FILLER_38_298
*3334 FILLER_38_3
*3335 FILLER_38_301
*3336 FILLER_38_304
*3337 FILLER_38_307
*3338 FILLER_38_309
*3339 FILLER_38_32
*3340 FILLER_38_320
*3341 FILLER_38_323
*3342 FILLER_38_326
*3343 FILLER_38_329
*3344 FILLER_38_332
*3345 FILLER_38_35
*3346 FILLER_38_38
*3347 FILLER_38_41
*3348 FILLER_38_44
*3349 FILLER_38_47
*3350 FILLER_38_50
*3351 FILLER_38_53
*3352 FILLER_38_57
*3353 FILLER_38_6
*3354 FILLER_38_60
*3355 FILLER_38_64
*3356 FILLER_38_70
*3357 FILLER_38_76
*3358 FILLER_38_82
*3359 FILLER_38_88
*3360 FILLER_38_9
*3361 FILLER_38_94
*3362 FILLER_3_102
*3363 FILLER_3_105
*3364 FILLER_3_108
*3365 FILLER_3_111
*3366 FILLER_3_113
*3367 FILLER_3_116
*3368 FILLER_3_119
*3369 FILLER_3_12
*3370 FILLER_3_122
*3371 FILLER_3_125
*3372 FILLER_3_128
*3373 FILLER_3_131
*3374 FILLER_3_134
*3375 FILLER_3_137
*3376 FILLER_3_140
*3377 FILLER_3_143
*3378 FILLER_3_146
*3379 FILLER_3_149
*3380 FILLER_3_15
*3381 FILLER_3_152
*3382 FILLER_3_155
*3383 FILLER_3_158
*3384 FILLER_3_161
*3385 FILLER_3_164
*3386 FILLER_3_167
*3387 FILLER_3_169
*3388 FILLER_3_172
*3389 FILLER_3_175
*3390 FILLER_3_178
*3391 FILLER_3_18
*3392 FILLER_3_181
*3393 FILLER_3_184
*3394 FILLER_3_187
*3395 FILLER_3_190
*3396 FILLER_3_193
*3397 FILLER_3_196
*3398 FILLER_3_199
*3399 FILLER_3_202
*3400 FILLER_3_205
*3401 FILLER_3_208
*3402 FILLER_3_21
*3403 FILLER_3_211
*3404 FILLER_3_214
*3405 FILLER_3_217
*3406 FILLER_3_220
*3407 FILLER_3_223
*3408 FILLER_3_225
*3409 FILLER_3_228
*3410 FILLER_3_231
*3411 FILLER_3_234
*3412 FILLER_3_237
*3413 FILLER_3_24
*3414 FILLER_3_240
*3415 FILLER_3_243
*3416 FILLER_3_246
*3417 FILLER_3_249
*3418 FILLER_3_252
*3419 FILLER_3_255
*3420 FILLER_3_258
*3421 FILLER_3_261
*3422 FILLER_3_264
*3423 FILLER_3_267
*3424 FILLER_3_27
*3425 FILLER_3_270
*3426 FILLER_3_273
*3427 FILLER_3_276
*3428 FILLER_3_279
*3429 FILLER_3_281
*3430 FILLER_3_284
*3431 FILLER_3_287
*3432 FILLER_3_290
*3433 FILLER_3_293
*3434 FILLER_3_296
*3435 FILLER_3_299
*3436 FILLER_3_3
*3437 FILLER_3_30
*3438 FILLER_3_302
*3439 FILLER_3_305
*3440 FILLER_3_308
*3441 FILLER_3_311
*3442 FILLER_3_314
*3443 FILLER_3_317
*3444 FILLER_3_320
*3445 FILLER_3_323
*3446 FILLER_3_326
*3447 FILLER_3_329
*3448 FILLER_3_33
*3449 FILLER_3_332
*3450 FILLER_3_36
*3451 FILLER_3_39
*3452 FILLER_3_42
*3453 FILLER_3_45
*3454 FILLER_3_48
*3455 FILLER_3_51
*3456 FILLER_3_54
*3457 FILLER_3_57
*3458 FILLER_3_6
*3459 FILLER_3_60
*3460 FILLER_3_63
*3461 FILLER_3_66
*3462 FILLER_3_69
*3463 FILLER_3_72
*3464 FILLER_3_75
*3465 FILLER_3_78
*3466 FILLER_3_81
*3467 FILLER_3_84
*3468 FILLER_3_87
*3469 FILLER_3_9
*3470 FILLER_3_90
*3471 FILLER_3_93
*3472 FILLER_3_96
*3473 FILLER_3_99
*3474 FILLER_4_100
*3475 FILLER_4_103
*3476 FILLER_4_106
*3477 FILLER_4_109
*3478 FILLER_4_112
*3479 FILLER_4_115
*3480 FILLER_4_118
*3481 FILLER_4_12
*3482 FILLER_4_121
*3483 FILLER_4_124
*3484 FILLER_4_127
*3485 FILLER_4_130
*3486 FILLER_4_133
*3487 FILLER_4_136
*3488 FILLER_4_139
*3489 FILLER_4_141
*3490 FILLER_4_144
*3491 FILLER_4_147
*3492 FILLER_4_15
*3493 FILLER_4_150
*3494 FILLER_4_153
*3495 FILLER_4_156
*3496 FILLER_4_159
*3497 FILLER_4_162
*3498 FILLER_4_165
*3499 FILLER_4_168
*3500 FILLER_4_171
*3501 FILLER_4_174
*3502 FILLER_4_177
*3503 FILLER_4_18
*3504 FILLER_4_180
*3505 FILLER_4_183
*3506 FILLER_4_186
*3507 FILLER_4_189
*3508 FILLER_4_192
*3509 FILLER_4_195
*3510 FILLER_4_197
*3511 FILLER_4_200
*3512 FILLER_4_203
*3513 FILLER_4_206
*3514 FILLER_4_209
*3515 FILLER_4_21
*3516 FILLER_4_212
*3517 FILLER_4_215
*3518 FILLER_4_218
*3519 FILLER_4_221
*3520 FILLER_4_224
*3521 FILLER_4_227
*3522 FILLER_4_230
*3523 FILLER_4_233
*3524 FILLER_4_236
*3525 FILLER_4_239
*3526 FILLER_4_24
*3527 FILLER_4_242
*3528 FILLER_4_245
*3529 FILLER_4_248
*3530 FILLER_4_251
*3531 FILLER_4_253
*3532 FILLER_4_256
*3533 FILLER_4_259
*3534 FILLER_4_262
*3535 FILLER_4_265
*3536 FILLER_4_268
*3537 FILLER_4_27
*3538 FILLER_4_271
*3539 FILLER_4_274
*3540 FILLER_4_277
*3541 FILLER_4_280
*3542 FILLER_4_283
*3543 FILLER_4_286
*3544 FILLER_4_289
*3545 FILLER_4_29
*3546 FILLER_4_292
*3547 FILLER_4_295
*3548 FILLER_4_298
*3549 FILLER_4_3
*3550 FILLER_4_301
*3551 FILLER_4_304
*3552 FILLER_4_307
*3553 FILLER_4_309
*3554 FILLER_4_312
*3555 FILLER_4_315
*3556 FILLER_4_318
*3557 FILLER_4_32
*3558 FILLER_4_321
*3559 FILLER_4_324
*3560 FILLER_4_327
*3561 FILLER_4_330
*3562 FILLER_4_333
*3563 FILLER_4_35
*3564 FILLER_4_38
*3565 FILLER_4_41
*3566 FILLER_4_44
*3567 FILLER_4_47
*3568 FILLER_4_50
*3569 FILLER_4_53
*3570 FILLER_4_56
*3571 FILLER_4_59
*3572 FILLER_4_6
*3573 FILLER_4_62
*3574 FILLER_4_65
*3575 FILLER_4_68
*3576 FILLER_4_71
*3577 FILLER_4_74
*3578 FILLER_4_77
*3579 FILLER_4_80
*3580 FILLER_4_83
*3581 FILLER_4_85
*3582 FILLER_4_88
*3583 FILLER_4_9
*3584 FILLER_4_91
*3585 FILLER_4_94
*3586 FILLER_4_97
*3587 FILLER_5_102
*3588 FILLER_5_105
*3589 FILLER_5_108
*3590 FILLER_5_111
*3591 FILLER_5_113
*3592 FILLER_5_116
*3593 FILLER_5_119
*3594 FILLER_5_12
*3595 FILLER_5_122
*3596 FILLER_5_125
*3597 FILLER_5_128
*3598 FILLER_5_131
*3599 FILLER_5_134
*3600 FILLER_5_137
*3601 FILLER_5_140
*3602 FILLER_5_143
*3603 FILLER_5_146
*3604 FILLER_5_149
*3605 FILLER_5_15
*3606 FILLER_5_152
*3607 FILLER_5_155
*3608 FILLER_5_158
*3609 FILLER_5_161
*3610 FILLER_5_164
*3611 FILLER_5_167
*3612 FILLER_5_169
*3613 FILLER_5_172
*3614 FILLER_5_175
*3615 FILLER_5_178
*3616 FILLER_5_18
*3617 FILLER_5_181
*3618 FILLER_5_184
*3619 FILLER_5_187
*3620 FILLER_5_190
*3621 FILLER_5_193
*3622 FILLER_5_196
*3623 FILLER_5_199
*3624 FILLER_5_202
*3625 FILLER_5_205
*3626 FILLER_5_208
*3627 FILLER_5_21
*3628 FILLER_5_211
*3629 FILLER_5_214
*3630 FILLER_5_217
*3631 FILLER_5_220
*3632 FILLER_5_223
*3633 FILLER_5_225
*3634 FILLER_5_228
*3635 FILLER_5_231
*3636 FILLER_5_234
*3637 FILLER_5_237
*3638 FILLER_5_24
*3639 FILLER_5_240
*3640 FILLER_5_243
*3641 FILLER_5_246
*3642 FILLER_5_249
*3643 FILLER_5_252
*3644 FILLER_5_255
*3645 FILLER_5_258
*3646 FILLER_5_261
*3647 FILLER_5_264
*3648 FILLER_5_267
*3649 FILLER_5_27
*3650 FILLER_5_270
*3651 FILLER_5_273
*3652 FILLER_5_276
*3653 FILLER_5_279
*3654 FILLER_5_281
*3655 FILLER_5_284
*3656 FILLER_5_287
*3657 FILLER_5_290
*3658 FILLER_5_293
*3659 FILLER_5_296
*3660 FILLER_5_299
*3661 FILLER_5_3
*3662 FILLER_5_30
*3663 FILLER_5_302
*3664 FILLER_5_305
*3665 FILLER_5_308
*3666 FILLER_5_311
*3667 FILLER_5_314
*3668 FILLER_5_317
*3669 FILLER_5_320
*3670 FILLER_5_323
*3671 FILLER_5_326
*3672 FILLER_5_329
*3673 FILLER_5_33
*3674 FILLER_5_332
*3675 FILLER_5_36
*3676 FILLER_5_39
*3677 FILLER_5_42
*3678 FILLER_5_45
*3679 FILLER_5_48
*3680 FILLER_5_51
*3681 FILLER_5_54
*3682 FILLER_5_57
*3683 FILLER_5_6
*3684 FILLER_5_60
*3685 FILLER_5_63
*3686 FILLER_5_66
*3687 FILLER_5_69
*3688 FILLER_5_72
*3689 FILLER_5_75
*3690 FILLER_5_78
*3691 FILLER_5_81
*3692 FILLER_5_84
*3693 FILLER_5_87
*3694 FILLER_5_9
*3695 FILLER_5_90
*3696 FILLER_5_93
*3697 FILLER_5_96
*3698 FILLER_5_99
*3699 FILLER_6_100
*3700 FILLER_6_103
*3701 FILLER_6_106
*3702 FILLER_6_109
*3703 FILLER_6_112
*3704 FILLER_6_115
*3705 FILLER_6_118
*3706 FILLER_6_12
*3707 FILLER_6_121
*3708 FILLER_6_124
*3709 FILLER_6_127
*3710 FILLER_6_130
*3711 FILLER_6_133
*3712 FILLER_6_136
*3713 FILLER_6_139
*3714 FILLER_6_141
*3715 FILLER_6_144
*3716 FILLER_6_147
*3717 FILLER_6_15
*3718 FILLER_6_150
*3719 FILLER_6_153
*3720 FILLER_6_156
*3721 FILLER_6_159
*3722 FILLER_6_162
*3723 FILLER_6_165
*3724 FILLER_6_168
*3725 FILLER_6_171
*3726 FILLER_6_174
*3727 FILLER_6_177
*3728 FILLER_6_18
*3729 FILLER_6_180
*3730 FILLER_6_183
*3731 FILLER_6_186
*3732 FILLER_6_189
*3733 FILLER_6_192
*3734 FILLER_6_195
*3735 FILLER_6_197
*3736 FILLER_6_200
*3737 FILLER_6_203
*3738 FILLER_6_206
*3739 FILLER_6_209
*3740 FILLER_6_21
*3741 FILLER_6_212
*3742 FILLER_6_215
*3743 FILLER_6_218
*3744 FILLER_6_221
*3745 FILLER_6_224
*3746 FILLER_6_227
*3747 FILLER_6_230
*3748 FILLER_6_233
*3749 FILLER_6_236
*3750 FILLER_6_239
*3751 FILLER_6_24
*3752 FILLER_6_242
*3753 FILLER_6_245
*3754 FILLER_6_248
*3755 FILLER_6_251
*3756 FILLER_6_253
*3757 FILLER_6_256
*3758 FILLER_6_259
*3759 FILLER_6_262
*3760 FILLER_6_265
*3761 FILLER_6_268
*3762 FILLER_6_27
*3763 FILLER_6_271
*3764 FILLER_6_274
*3765 FILLER_6_277
*3766 FILLER_6_280
*3767 FILLER_6_283
*3768 FILLER_6_286
*3769 FILLER_6_289
*3770 FILLER_6_29
*3771 FILLER_6_292
*3772 FILLER_6_295
*3773 FILLER_6_298
*3774 FILLER_6_3
*3775 FILLER_6_301
*3776 FILLER_6_304
*3777 FILLER_6_307
*3778 FILLER_6_309
*3779 FILLER_6_312
*3780 FILLER_6_315
*3781 FILLER_6_318
*3782 FILLER_6_32
*3783 FILLER_6_321
*3784 FILLER_6_324
*3785 FILLER_6_327
*3786 FILLER_6_330
*3787 FILLER_6_333
*3788 FILLER_6_35
*3789 FILLER_6_38
*3790 FILLER_6_41
*3791 FILLER_6_44
*3792 FILLER_6_47
*3793 FILLER_6_50
*3794 FILLER_6_53
*3795 FILLER_6_56
*3796 FILLER_6_59
*3797 FILLER_6_6
*3798 FILLER_6_62
*3799 FILLER_6_65
*3800 FILLER_6_68
*3801 FILLER_6_71
*3802 FILLER_6_74
*3803 FILLER_6_77
*3804 FILLER_6_80
*3805 FILLER_6_83
*3806 FILLER_6_85
*3807 FILLER_6_88
*3808 FILLER_6_9
*3809 FILLER_6_91
*3810 FILLER_6_94
*3811 FILLER_6_97
*3812 FILLER_7_102
*3813 FILLER_7_105
*3814 FILLER_7_108
*3815 FILLER_7_111
*3816 FILLER_7_113
*3817 FILLER_7_116
*3818 FILLER_7_119
*3819 FILLER_7_12
*3820 FILLER_7_122
*3821 FILLER_7_125
*3822 FILLER_7_128
*3823 FILLER_7_131
*3824 FILLER_7_134
*3825 FILLER_7_137
*3826 FILLER_7_140
*3827 FILLER_7_143
*3828 FILLER_7_146
*3829 FILLER_7_149
*3830 FILLER_7_15
*3831 FILLER_7_152
*3832 FILLER_7_155
*3833 FILLER_7_158
*3834 FILLER_7_161
*3835 FILLER_7_164
*3836 FILLER_7_167
*3837 FILLER_7_169
*3838 FILLER_7_172
*3839 FILLER_7_175
*3840 FILLER_7_178
*3841 FILLER_7_18
*3842 FILLER_7_181
*3843 FILLER_7_184
*3844 FILLER_7_187
*3845 FILLER_7_190
*3846 FILLER_7_193
*3847 FILLER_7_196
*3848 FILLER_7_199
*3849 FILLER_7_202
*3850 FILLER_7_205
*3851 FILLER_7_208
*3852 FILLER_7_21
*3853 FILLER_7_211
*3854 FILLER_7_214
*3855 FILLER_7_217
*3856 FILLER_7_220
*3857 FILLER_7_223
*3858 FILLER_7_225
*3859 FILLER_7_228
*3860 FILLER_7_231
*3861 FILLER_7_234
*3862 FILLER_7_237
*3863 FILLER_7_24
*3864 FILLER_7_240
*3865 FILLER_7_243
*3866 FILLER_7_246
*3867 FILLER_7_249
*3868 FILLER_7_252
*3869 FILLER_7_255
*3870 FILLER_7_258
*3871 FILLER_7_261
*3872 FILLER_7_264
*3873 FILLER_7_267
*3874 FILLER_7_27
*3875 FILLER_7_270
*3876 FILLER_7_273
*3877 FILLER_7_276
*3878 FILLER_7_279
*3879 FILLER_7_281
*3880 FILLER_7_284
*3881 FILLER_7_287
*3882 FILLER_7_290
*3883 FILLER_7_293
*3884 FILLER_7_296
*3885 FILLER_7_299
*3886 FILLER_7_3
*3887 FILLER_7_30
*3888 FILLER_7_302
*3889 FILLER_7_305
*3890 FILLER_7_308
*3891 FILLER_7_311
*3892 FILLER_7_314
*3893 FILLER_7_317
*3894 FILLER_7_320
*3895 FILLER_7_323
*3896 FILLER_7_326
*3897 FILLER_7_329
*3898 FILLER_7_33
*3899 FILLER_7_332
*3900 FILLER_7_36
*3901 FILLER_7_39
*3902 FILLER_7_42
*3903 FILLER_7_45
*3904 FILLER_7_48
*3905 FILLER_7_51
*3906 FILLER_7_54
*3907 FILLER_7_57
*3908 FILLER_7_6
*3909 FILLER_7_60
*3910 FILLER_7_63
*3911 FILLER_7_66
*3912 FILLER_7_69
*3913 FILLER_7_72
*3914 FILLER_7_75
*3915 FILLER_7_78
*3916 FILLER_7_81
*3917 FILLER_7_84
*3918 FILLER_7_87
*3919 FILLER_7_9
*3920 FILLER_7_90
*3921 FILLER_7_93
*3922 FILLER_7_96
*3923 FILLER_7_99
*3924 FILLER_8_100
*3925 FILLER_8_103
*3926 FILLER_8_106
*3927 FILLER_8_109
*3928 FILLER_8_112
*3929 FILLER_8_115
*3930 FILLER_8_118
*3931 FILLER_8_12
*3932 FILLER_8_121
*3933 FILLER_8_124
*3934 FILLER_8_127
*3935 FILLER_8_130
*3936 FILLER_8_133
*3937 FILLER_8_136
*3938 FILLER_8_139
*3939 FILLER_8_141
*3940 FILLER_8_144
*3941 FILLER_8_147
*3942 FILLER_8_15
*3943 FILLER_8_150
*3944 FILLER_8_153
*3945 FILLER_8_156
*3946 FILLER_8_159
*3947 FILLER_8_162
*3948 FILLER_8_165
*3949 FILLER_8_168
*3950 FILLER_8_171
*3951 FILLER_8_174
*3952 FILLER_8_177
*3953 FILLER_8_18
*3954 FILLER_8_180
*3955 FILLER_8_183
*3956 FILLER_8_186
*3957 FILLER_8_189
*3958 FILLER_8_192
*3959 FILLER_8_195
*3960 FILLER_8_197
*3961 FILLER_8_200
*3962 FILLER_8_203
*3963 FILLER_8_206
*3964 FILLER_8_209
*3965 FILLER_8_21
*3966 FILLER_8_212
*3967 FILLER_8_215
*3968 FILLER_8_218
*3969 FILLER_8_221
*3970 FILLER_8_224
*3971 FILLER_8_227
*3972 FILLER_8_230
*3973 FILLER_8_233
*3974 FILLER_8_236
*3975 FILLER_8_239
*3976 FILLER_8_24
*3977 FILLER_8_242
*3978 FILLER_8_245
*3979 FILLER_8_248
*3980 FILLER_8_251
*3981 FILLER_8_253
*3982 FILLER_8_256
*3983 FILLER_8_259
*3984 FILLER_8_262
*3985 FILLER_8_265
*3986 FILLER_8_268
*3987 FILLER_8_27
*3988 FILLER_8_271
*3989 FILLER_8_274
*3990 FILLER_8_277
*3991 FILLER_8_280
*3992 FILLER_8_283
*3993 FILLER_8_286
*3994 FILLER_8_289
*3995 FILLER_8_29
*3996 FILLER_8_292
*3997 FILLER_8_295
*3998 FILLER_8_298
*3999 FILLER_8_3
*4000 FILLER_8_301
*4001 FILLER_8_304
*4002 FILLER_8_307
*4003 FILLER_8_309
*4004 FILLER_8_312
*4005 FILLER_8_315
*4006 FILLER_8_318
*4007 FILLER_8_32
*4008 FILLER_8_321
*4009 FILLER_8_324
*4010 FILLER_8_327
*4011 FILLER_8_330
*4012 FILLER_8_333
*4013 FILLER_8_35
*4014 FILLER_8_38
*4015 FILLER_8_41
*4016 FILLER_8_44
*4017 FILLER_8_47
*4018 FILLER_8_50
*4019 FILLER_8_53
*4020 FILLER_8_56
*4021 FILLER_8_59
*4022 FILLER_8_6
*4023 FILLER_8_62
*4024 FILLER_8_65
*4025 FILLER_8_68
*4026 FILLER_8_71
*4027 FILLER_8_74
*4028 FILLER_8_77
*4029 FILLER_8_80
*4030 FILLER_8_83
*4031 FILLER_8_85
*4032 FILLER_8_88
*4033 FILLER_8_9
*4034 FILLER_8_91
*4035 FILLER_8_94
*4036 FILLER_8_97
*4037 FILLER_9_102
*4038 FILLER_9_105
*4039 FILLER_9_108
*4040 FILLER_9_111
*4041 FILLER_9_113
*4042 FILLER_9_116
*4043 FILLER_9_119
*4044 FILLER_9_12
*4045 FILLER_9_122
*4046 FILLER_9_125
*4047 FILLER_9_128
*4048 FILLER_9_131
*4049 FILLER_9_134
*4050 FILLER_9_137
*4051 FILLER_9_140
*4052 FILLER_9_143
*4053 FILLER_9_146
*4054 FILLER_9_149
*4055 FILLER_9_15
*4056 FILLER_9_152
*4057 FILLER_9_155
*4058 FILLER_9_158
*4059 FILLER_9_161
*4060 FILLER_9_164
*4061 FILLER_9_167
*4062 FILLER_9_169
*4063 FILLER_9_172
*4064 FILLER_9_175
*4065 FILLER_9_178
*4066 FILLER_9_18
*4067 FILLER_9_181
*4068 FILLER_9_184
*4069 FILLER_9_187
*4070 FILLER_9_190
*4071 FILLER_9_193
*4072 FILLER_9_196
*4073 FILLER_9_199
*4074 FILLER_9_202
*4075 FILLER_9_205
*4076 FILLER_9_208
*4077 FILLER_9_21
*4078 FILLER_9_211
*4079 FILLER_9_214
*4080 FILLER_9_217
*4081 FILLER_9_220
*4082 FILLER_9_223
*4083 FILLER_9_225
*4084 FILLER_9_228
*4085 FILLER_9_231
*4086 FILLER_9_234
*4087 FILLER_9_237
*4088 FILLER_9_24
*4089 FILLER_9_240
*4090 FILLER_9_243
*4091 FILLER_9_246
*4092 FILLER_9_249
*4093 FILLER_9_252
*4094 FILLER_9_255
*4095 FILLER_9_258
*4096 FILLER_9_261
*4097 FILLER_9_264
*4098 FILLER_9_267
*4099 FILLER_9_27
*4100 FILLER_9_270
*4101 FILLER_9_273
*4102 FILLER_9_276
*4103 FILLER_9_279
*4104 FILLER_9_281
*4105 FILLER_9_284
*4106 FILLER_9_287
*4107 FILLER_9_290
*4108 FILLER_9_293
*4109 FILLER_9_296
*4110 FILLER_9_299
*4111 FILLER_9_3
*4112 FILLER_9_30
*4113 FILLER_9_302
*4114 FILLER_9_305
*4115 FILLER_9_308
*4116 FILLER_9_311
*4117 FILLER_9_314
*4118 FILLER_9_317
*4119 FILLER_9_320
*4120 FILLER_9_323
*4121 FILLER_9_326
*4122 FILLER_9_329
*4123 FILLER_9_33
*4124 FILLER_9_332
*4125 FILLER_9_36
*4126 FILLER_9_39
*4127 FILLER_9_42
*4128 FILLER_9_45
*4129 FILLER_9_48
*4130 FILLER_9_51
*4131 FILLER_9_54
*4132 FILLER_9_57
*4133 FILLER_9_6
*4134 FILLER_9_60
*4135 FILLER_9_63
*4136 FILLER_9_66
*4137 FILLER_9_69
*4138 FILLER_9_72
*4139 FILLER_9_75
*4140 FILLER_9_78
*4141 FILLER_9_81
*4142 FILLER_9_84
*4143 FILLER_9_87
*4144 FILLER_9_9
*4145 FILLER_9_90
*4146 FILLER_9_93
*4147 FILLER_9_96
*4148 FILLER_9_99
*4149 PHY_EDGE_ROW_0_Left_39
*4150 PHY_EDGE_ROW_0_Right_0
*4151 PHY_EDGE_ROW_10_Left_49
*4152 PHY_EDGE_ROW_10_Right_10
*4153 PHY_EDGE_ROW_11_Left_50
*4154 PHY_EDGE_ROW_11_Right_11
*4155 PHY_EDGE_ROW_12_Left_51
*4156 PHY_EDGE_ROW_12_Right_12
*4157 PHY_EDGE_ROW_13_Left_52
*4158 PHY_EDGE_ROW_13_Right_13
*4159 PHY_EDGE_ROW_14_Left_53
*4160 PHY_EDGE_ROW_14_Right_14
*4161 PHY_EDGE_ROW_15_Left_54
*4162 PHY_EDGE_ROW_15_Right_15
*4163 PHY_EDGE_ROW_16_Left_55
*4164 PHY_EDGE_ROW_16_Right_16
*4165 PHY_EDGE_ROW_17_Left_56
*4166 PHY_EDGE_ROW_17_Right_17
*4167 PHY_EDGE_ROW_18_Left_57
*4168 PHY_EDGE_ROW_18_Right_18
*4169 PHY_EDGE_ROW_19_Left_58
*4170 PHY_EDGE_ROW_19_Right_19
*4171 PHY_EDGE_ROW_1_Left_40
*4172 PHY_EDGE_ROW_1_Right_1
*4173 PHY_EDGE_ROW_20_Left_59
*4174 PHY_EDGE_ROW_20_Right_20
*4175 PHY_EDGE_ROW_21_Left_60
*4176 PHY_EDGE_ROW_21_Right_21
*4177 PHY_EDGE_ROW_22_Left_61
*4178 PHY_EDGE_ROW_22_Right_22
*4179 PHY_EDGE_ROW_23_Left_62
*4180 PHY_EDGE_ROW_23_Right_23
*4181 PHY_EDGE_ROW_24_Left_63
*4182 PHY_EDGE_ROW_24_Right_24
*4183 PHY_EDGE_ROW_25_Left_64
*4184 PHY_EDGE_ROW_25_Right_25
*4185 PHY_EDGE_ROW_26_Left_65
*4186 PHY_EDGE_ROW_26_Right_26
*4187 PHY_EDGE_ROW_27_Left_66
*4188 PHY_EDGE_ROW_27_Right_27
*4189 PHY_EDGE_ROW_28_Left_67
*4190 PHY_EDGE_ROW_28_Right_28
*4191 PHY_EDGE_ROW_29_Left_68
*4192 PHY_EDGE_ROW_29_Right_29
*4193 PHY_EDGE_ROW_2_Left_41
*4194 PHY_EDGE_ROW_2_Right_2
*4195 PHY_EDGE_ROW_30_Left_69
*4196 PHY_EDGE_ROW_30_Right_30
*4197 PHY_EDGE_ROW_31_Left_70
*4198 PHY_EDGE_ROW_31_Right_31
*4199 PHY_EDGE_ROW_32_Left_71
*4200 PHY_EDGE_ROW_32_Right_32
*4201 PHY_EDGE_ROW_33_Left_72
*4202 PHY_EDGE_ROW_33_Right_33
*4203 PHY_EDGE_ROW_34_Left_73
*4204 PHY_EDGE_ROW_34_Right_34
*4205 PHY_EDGE_ROW_35_Left_74
*4206 PHY_EDGE_ROW_35_Right_35
*4207 PHY_EDGE_ROW_36_Left_75
*4208 PHY_EDGE_ROW_36_Right_36
*4209 PHY_EDGE_ROW_37_Left_76
*4210 PHY_EDGE_ROW_37_Right_37
*4211 PHY_EDGE_ROW_38_Left_77
*4212 PHY_EDGE_ROW_38_Right_38
*4213 PHY_EDGE_ROW_3_Left_42
*4214 PHY_EDGE_ROW_3_Right_3
*4215 PHY_EDGE_ROW_4_Left_43
*4216 PHY_EDGE_ROW_4_Right_4
*4217 PHY_EDGE_ROW_5_Left_44
*4218 PHY_EDGE_ROW_5_Right_5
*4219 PHY_EDGE_ROW_6_Left_45
*4220 PHY_EDGE_ROW_6_Right_6
*4221 PHY_EDGE_ROW_7_Left_46
*4222 PHY_EDGE_ROW_7_Right_7
*4223 PHY_EDGE_ROW_8_Left_47
*4224 PHY_EDGE_ROW_8_Right_8
*4225 PHY_EDGE_ROW_9_Left_48
*4226 PHY_EDGE_ROW_9_Right_9
*4227 TAP_TAPCELL_ROW_0_78
*4228 TAP_TAPCELL_ROW_0_79
*4229 TAP_TAPCELL_ROW_0_80
*4230 TAP_TAPCELL_ROW_0_81
*4231 TAP_TAPCELL_ROW_0_82
*4232 TAP_TAPCELL_ROW_0_83
*4233 TAP_TAPCELL_ROW_0_84
*4234 TAP_TAPCELL_ROW_0_85
*4235 TAP_TAPCELL_ROW_0_86
*4236 TAP_TAPCELL_ROW_0_87
*4237 TAP_TAPCELL_ROW_0_88
*4238 TAP_TAPCELL_ROW_10_138
*4239 TAP_TAPCELL_ROW_10_139
*4240 TAP_TAPCELL_ROW_10_140
*4241 TAP_TAPCELL_ROW_10_141
*4242 TAP_TAPCELL_ROW_10_142
*4243 TAP_TAPCELL_ROW_10_143
*4244 TAP_TAPCELL_ROW_11_144
*4245 TAP_TAPCELL_ROW_11_145
*4246 TAP_TAPCELL_ROW_11_146
*4247 TAP_TAPCELL_ROW_11_147
*4248 TAP_TAPCELL_ROW_11_148
*4249 TAP_TAPCELL_ROW_12_149
*4250 TAP_TAPCELL_ROW_12_150
*4251 TAP_TAPCELL_ROW_12_151
*4252 TAP_TAPCELL_ROW_12_152
*4253 TAP_TAPCELL_ROW_12_153
*4254 TAP_TAPCELL_ROW_12_154
*4255 TAP_TAPCELL_ROW_13_155
*4256 TAP_TAPCELL_ROW_13_156
*4257 TAP_TAPCELL_ROW_13_157
*4258 TAP_TAPCELL_ROW_13_158
*4259 TAP_TAPCELL_ROW_13_159
*4260 TAP_TAPCELL_ROW_14_160
*4261 TAP_TAPCELL_ROW_14_161
*4262 TAP_TAPCELL_ROW_14_162
*4263 TAP_TAPCELL_ROW_14_163
*4264 TAP_TAPCELL_ROW_14_164
*4265 TAP_TAPCELL_ROW_14_165
*4266 TAP_TAPCELL_ROW_15_166
*4267 TAP_TAPCELL_ROW_15_167
*4268 TAP_TAPCELL_ROW_15_168
*4269 TAP_TAPCELL_ROW_15_169
*4270 TAP_TAPCELL_ROW_15_170
*4271 TAP_TAPCELL_ROW_16_171
*4272 TAP_TAPCELL_ROW_16_172
*4273 TAP_TAPCELL_ROW_16_173
*4274 TAP_TAPCELL_ROW_16_174
*4275 TAP_TAPCELL_ROW_16_175
*4276 TAP_TAPCELL_ROW_16_176
*4277 TAP_TAPCELL_ROW_17_177
*4278 TAP_TAPCELL_ROW_17_178
*4279 TAP_TAPCELL_ROW_17_179
*4280 TAP_TAPCELL_ROW_17_180
*4281 TAP_TAPCELL_ROW_17_181
*4282 TAP_TAPCELL_ROW_18_182
*4283 TAP_TAPCELL_ROW_18_183
*4284 TAP_TAPCELL_ROW_18_184
*4285 TAP_TAPCELL_ROW_18_185
*4286 TAP_TAPCELL_ROW_18_186
*4287 TAP_TAPCELL_ROW_18_187
*4288 TAP_TAPCELL_ROW_19_188
*4289 TAP_TAPCELL_ROW_19_189
*4290 TAP_TAPCELL_ROW_19_190
*4291 TAP_TAPCELL_ROW_19_191
*4292 TAP_TAPCELL_ROW_19_192
*4293 TAP_TAPCELL_ROW_1_89
*4294 TAP_TAPCELL_ROW_1_90
*4295 TAP_TAPCELL_ROW_1_91
*4296 TAP_TAPCELL_ROW_1_92
*4297 TAP_TAPCELL_ROW_1_93
*4298 TAP_TAPCELL_ROW_20_193
*4299 TAP_TAPCELL_ROW_20_194
*4300 TAP_TAPCELL_ROW_20_195
*4301 TAP_TAPCELL_ROW_20_196
*4302 TAP_TAPCELL_ROW_20_197
*4303 TAP_TAPCELL_ROW_20_198
*4304 TAP_TAPCELL_ROW_21_199
*4305 TAP_TAPCELL_ROW_21_200
*4306 TAP_TAPCELL_ROW_21_201
*4307 TAP_TAPCELL_ROW_21_202
*4308 TAP_TAPCELL_ROW_21_203
*4309 TAP_TAPCELL_ROW_22_204
*4310 TAP_TAPCELL_ROW_22_205
*4311 TAP_TAPCELL_ROW_22_206
*4312 TAP_TAPCELL_ROW_22_207
*4313 TAP_TAPCELL_ROW_22_208
*4314 TAP_TAPCELL_ROW_22_209
*4315 TAP_TAPCELL_ROW_23_210
*4316 TAP_TAPCELL_ROW_23_211
*4317 TAP_TAPCELL_ROW_23_212
*4318 TAP_TAPCELL_ROW_23_213
*4319 TAP_TAPCELL_ROW_23_214
*4320 TAP_TAPCELL_ROW_24_215
*4321 TAP_TAPCELL_ROW_24_216
*4322 TAP_TAPCELL_ROW_24_217
*4323 TAP_TAPCELL_ROW_24_218
*4324 TAP_TAPCELL_ROW_24_219
*4325 TAP_TAPCELL_ROW_24_220
*4326 TAP_TAPCELL_ROW_25_221
*4327 TAP_TAPCELL_ROW_25_222
*4328 TAP_TAPCELL_ROW_25_223
*4329 TAP_TAPCELL_ROW_25_224
*4330 TAP_TAPCELL_ROW_25_225
*4331 TAP_TAPCELL_ROW_26_226
*4332 TAP_TAPCELL_ROW_26_227
*4333 TAP_TAPCELL_ROW_26_228
*4334 TAP_TAPCELL_ROW_26_229
*4335 TAP_TAPCELL_ROW_26_230
*4336 TAP_TAPCELL_ROW_26_231
*4337 TAP_TAPCELL_ROW_27_232
*4338 TAP_TAPCELL_ROW_27_233
*4339 TAP_TAPCELL_ROW_27_234
*4340 TAP_TAPCELL_ROW_27_235
*4341 TAP_TAPCELL_ROW_27_236
*4342 TAP_TAPCELL_ROW_28_237
*4343 TAP_TAPCELL_ROW_28_238
*4344 TAP_TAPCELL_ROW_28_239
*4345 TAP_TAPCELL_ROW_28_240
*4346 TAP_TAPCELL_ROW_28_241
*4347 TAP_TAPCELL_ROW_28_242
*4348 TAP_TAPCELL_ROW_29_243
*4349 TAP_TAPCELL_ROW_29_244
*4350 TAP_TAPCELL_ROW_29_245
*4351 TAP_TAPCELL_ROW_29_246
*4352 TAP_TAPCELL_ROW_29_247
*4353 TAP_TAPCELL_ROW_2_94
*4354 TAP_TAPCELL_ROW_2_95
*4355 TAP_TAPCELL_ROW_2_96
*4356 TAP_TAPCELL_ROW_2_97
*4357 TAP_TAPCELL_ROW_2_98
*4358 TAP_TAPCELL_ROW_2_99
*4359 TAP_TAPCELL_ROW_30_248
*4360 TAP_TAPCELL_ROW_30_249
*4361 TAP_TAPCELL_ROW_30_250
*4362 TAP_TAPCELL_ROW_30_251
*4363 TAP_TAPCELL_ROW_30_252
*4364 TAP_TAPCELL_ROW_30_253
*4365 TAP_TAPCELL_ROW_31_254
*4366 TAP_TAPCELL_ROW_31_255
*4367 TAP_TAPCELL_ROW_31_256
*4368 TAP_TAPCELL_ROW_31_257
*4369 TAP_TAPCELL_ROW_31_258
*4370 TAP_TAPCELL_ROW_32_259
*4371 TAP_TAPCELL_ROW_32_260
*4372 TAP_TAPCELL_ROW_32_261
*4373 TAP_TAPCELL_ROW_32_262
*4374 TAP_TAPCELL_ROW_32_263
*4375 TAP_TAPCELL_ROW_32_264
*4376 TAP_TAPCELL_ROW_33_265
*4377 TAP_TAPCELL_ROW_33_266
*4378 TAP_TAPCELL_ROW_33_267
*4379 TAP_TAPCELL_ROW_33_268
*4380 TAP_TAPCELL_ROW_33_269
*4381 TAP_TAPCELL_ROW_34_270
*4382 TAP_TAPCELL_ROW_34_271
*4383 TAP_TAPCELL_ROW_34_272
*4384 TAP_TAPCELL_ROW_34_273
*4385 TAP_TAPCELL_ROW_34_274
*4386 TAP_TAPCELL_ROW_34_275
*4387 TAP_TAPCELL_ROW_35_276
*4388 TAP_TAPCELL_ROW_35_277
*4389 TAP_TAPCELL_ROW_35_278
*4390 TAP_TAPCELL_ROW_35_279
*4391 TAP_TAPCELL_ROW_35_280
*4392 TAP_TAPCELL_ROW_36_281
*4393 TAP_TAPCELL_ROW_36_282
*4394 TAP_TAPCELL_ROW_36_283
*4395 TAP_TAPCELL_ROW_36_284
*4396 TAP_TAPCELL_ROW_36_285
*4397 TAP_TAPCELL_ROW_36_286
*4398 TAP_TAPCELL_ROW_37_287
*4399 TAP_TAPCELL_ROW_37_288
*4400 TAP_TAPCELL_ROW_37_289
*4401 TAP_TAPCELL_ROW_37_290
*4402 TAP_TAPCELL_ROW_37_291
*4403 TAP_TAPCELL_ROW_38_292
*4404 TAP_TAPCELL_ROW_38_293
*4405 TAP_TAPCELL_ROW_38_294
*4406 TAP_TAPCELL_ROW_38_295
*4407 TAP_TAPCELL_ROW_38_296
*4408 TAP_TAPCELL_ROW_38_297
*4409 TAP_TAPCELL_ROW_38_298
*4410 TAP_TAPCELL_ROW_38_299
*4411 TAP_TAPCELL_ROW_38_300
*4412 TAP_TAPCELL_ROW_38_301
*4413 TAP_TAPCELL_ROW_38_302
*4414 TAP_TAPCELL_ROW_3_100
*4415 TAP_TAPCELL_ROW_3_101
*4416 TAP_TAPCELL_ROW_3_102
*4417 TAP_TAPCELL_ROW_3_103
*4418 TAP_TAPCELL_ROW_3_104
*4419 TAP_TAPCELL_ROW_4_105
*4420 TAP_TAPCELL_ROW_4_106
*4421 TAP_TAPCELL_ROW_4_107
*4422 TAP_TAPCELL_ROW_4_108
*4423 TAP_TAPCELL_ROW_4_109
*4424 TAP_TAPCELL_ROW_4_110
*4425 TAP_TAPCELL_ROW_5_111
*4426 TAP_TAPCELL_ROW_5_112
*4427 TAP_TAPCELL_ROW_5_113
*4428 TAP_TAPCELL_ROW_5_114
*4429 TAP_TAPCELL_ROW_5_115
*4430 TAP_TAPCELL_ROW_6_116
*4431 TAP_TAPCELL_ROW_6_117
*4432 TAP_TAPCELL_ROW_6_118
*4433 TAP_TAPCELL_ROW_6_119
*4434 TAP_TAPCELL_ROW_6_120
*4435 TAP_TAPCELL_ROW_6_121
*4436 TAP_TAPCELL_ROW_7_122
*4437 TAP_TAPCELL_ROW_7_123
*4438 TAP_TAPCELL_ROW_7_124
*4439 TAP_TAPCELL_ROW_7_125
*4440 TAP_TAPCELL_ROW_7_126
*4441 TAP_TAPCELL_ROW_8_127
*4442 TAP_TAPCELL_ROW_8_128
*4443 TAP_TAPCELL_ROW_8_129
*4444 TAP_TAPCELL_ROW_8_130
*4445 TAP_TAPCELL_ROW_8_131
*4446 TAP_TAPCELL_ROW_8_132
*4447 TAP_TAPCELL_ROW_9_133
*4448 TAP_TAPCELL_ROW_9_134
*4449 TAP_TAPCELL_ROW_9_135
*4450 TAP_TAPCELL_ROW_9_136
*4451 TAP_TAPCELL_ROW_9_137
*4452 _157_
*4453 _158_
*4454 _159_
*4455 _160_
*4456 _161_
*4457 _162_
*4458 _163_
*4459 _164_
*4460 _165_
*4461 _166_
*4462 _167_
*4463 _168_
*4464 _169_
*4465 _170_
*4466 _171_
*4467 _172_
*4468 _173_
*4469 _174_
*4470 _175_
*4471 _176_
*4472 _177_
*4473 _178_
*4474 _179_
*4475 _180_
*4476 _181_
*4477 _182_
*4478 _183_
*4479 _184_
*4480 _185_
*4481 _186_
*4482 _187_
*4483 _188_
*4484 _189_
*4485 _190_
*4486 _191_
*4487 _192_
*4488 _193_
*4489 _194_
*4490 _195_
*4491 _196_
*4492 _197_
*4493 _198_
*4494 _199_
*4495 _200_
*4496 _201_
*4497 _202_
*4498 _203_
*4499 _204_
*4500 _205_
*4501 _206_
*4502 _207_
*4503 _208_
*4504 _209_
*4505 _210_
*4506 _211_
*4507 _212_
*4508 _213_
*4509 _214_
*4510 _215_
*4511 _216_
*4512 _217_
*4513 _218_
*4514 _219_
*4515 _220_
*4516 _221_
*4517 _222_
*4518 _223_
*4519 _224_
*4520 _225_
*4521 _226_
*4522 _227_
*4523 _228_
*4524 _229_
*4525 _230_
*4526 _231_
*4527 _232_
*4528 _233_
*4529 _234_
*4530 _235_
*4531 _236_
*4532 _237_
*4533 _238_
*4534 _239_
*4535 _240_
*4536 _241_
*4537 _242_
*4538 _243_
*4539 _244_
*4540 _245_
*4541 _246_
*4542 _247_
*4543 _248_
*4544 _249_
*4545 _250_
*4546 _251_
*4547 _252_
*4548 _253_
*4549 _254_
*4550 _255_
*4551 _256_
*4552 _257_
*4553 _258_
*4554 _259_
*4555 _260_
*4556 _261_
*4557 _262_
*4558 _263_
*4559 _264_
*4560 _265_
*4561 _266_
*4562 _267_
*4563 _268_
*4564 _269_
*4565 _270_
*4566 _271_
*4567 _272_
*4568 _273_
*4569 _274_
*4570 _275_
*4571 _276_
*4572 _277_
*4573 _278_
*4574 _279_
*4575 _280_
*4576 _281_
*4577 _282_
*4578 _283_
*4579 _284_
*4580 _285_
*4581 _286_
*4582 _287_
*4583 _288_
*4584 _289_
*4585 _290_
*4586 _291_
*4587 _292_
*4588 _293_
*4589 _294_
*4590 _295_
*4591 _296_
*4592 _297_
*4593 _298_
*4594 _299_
*4595 _300_
*4596 _301_
*4597 _302_
*4598 _303_
*4599 _304_
*4600 _305_
*4601 _306_
*4602 _307_
*4603 _308_
*4604 _309_
*4605 _310_
*4606 _311_
*4607 _312_
*4608 _313_
*4609 _314_
*4610 _315_
*4611 _316_
*4612 _317_
*4613 _318_
*4614 _319_
*4615 _320_
*4616 _321_
*4617 _322_
*4618 _323_
*4619 _324_
*4620 _325_
*4621 _326_
*4622 _327_
*4623 _328_
*4624 _329_
*4625 clkbuf_0_clk
*4626 clkbuf_1_0__f_clk
*4627 clkbuf_1_1__f_clk
*4628 fanout28
*4629 fanout29
*4630 fanout30
*4631 fanout31
*4632 fanout32
*4633 fanout33
*4634 fanout34
*4635 fanout35
*4636 fanout36
*4637 fanout37
*4638 fanout38
*4639 fanout39
*4640 fanout40
*4641 hold1
*4642 hold2
*4643 hold3
*4644 hold4
*4645 hold5
*4646 input1
*4647 input2
*4648 input3
*4649 input4
*4650 input5
*4651 input6
*4652 input7
*4653 input8
*4654 max_cap17
*4655 max_cap18
*4656 max_cap19
*4657 max_cap20
*4658 max_cap21
*4659 max_cap22
*4660 max_cap24
*4661 max_cap25
*4662 max_cap26
*4663 output10
*4664 output11
*4665 output12
*4666 output13
*4667 output14
*4668 output15
*4669 output16
*4670 output9
*4671 tt_um_chip_rom_27
*4672 tt_um_chip_rom_28
*4673 tt_um_chip_rom_29
*4674 tt_um_chip_rom_30
*4675 tt_um_chip_rom_31
*4676 tt_um_chip_rom_32
*4677 tt_um_chip_rom_33
*4678 tt_um_chip_rom_34
*4679 tt_um_chip_rom_35
*4680 tt_um_chip_rom_36
*4681 tt_um_chip_rom_37
*4682 tt_um_chip_rom_38
*4683 tt_um_chip_rom_39
*4684 tt_um_chip_rom_40
*4685 tt_um_chip_rom_41
*4686 tt_um_chip_rom_42
*4687 wire23

*PORTS
clk I
ena I
rst_n I
ui_in[0] I
ui_in[1] I
ui_in[2] I
ui_in[3] I
ui_in[4] I
ui_in[5] I
ui_in[6] I
ui_in[7] I
uio_in[0] I
uio_in[1] I
uio_in[2] I
uio_in[3] I
uio_in[4] I
uio_in[5] I
uio_in[6] I
uio_in[7] I
uio_oe[0] O
uio_oe[1] O
uio_oe[2] O
uio_oe[3] O
uio_oe[4] O
uio_oe[5] O
uio_oe[6] O
uio_oe[7] O
uio_out[0] O
uio_out[1] O
uio_out[2] O
uio_out[3] O
uio_out[4] O
uio_out[5] O
uio_out[6] O
uio_out[7] O
uo_out[0] O
uo_out[1] O
uo_out[2] O
uo_out[3] O
uo_out[4] O
uo_out[5] O
uo_out[6] O
uo_out[7] O

*D_NET *3 0.00462392
*CONN
*P clk I
*I *4625:A I *D sky130_fd_sc_hd__clkbuf_16
*CAP
1 clk 0.00173849
2 *4625:A 0.00173849
3 *4625:A *4600:A 9.01334e-05
4 *4625:A *4601:B 7.50601e-05
5 *4625:A *4602:A 6.70624e-05
6 *4625:A *4620:CLK 0.000106903
7 *4625:A *4620:D 0.00015304
8 *4625:A *4626:A 0
9 *4625:A *4627:A 0
10 *4625:A *4639:A 0
11 *4625:A *5:13 0.000654732
12 *4625:A *247:10 0
13 *4625:A *247:21 0
14 *4625:A *247:64 0
*RES
1 clk *4625:A 37.8159 
*END

*D_NET *5 0.0062473
*CONN
*P rst_n I
*I *4640:A I *D sky130_fd_sc_hd__clkbuf_2
*I *4639:A I *D sky130_fd_sc_hd__clkbuf_1
*CAP
1 rst_n 0.0020765
2 *4640:A 0
3 *4639:A 0.000650315
4 *5:13 0.00272682
5 *4639:A *4602:A 0
6 *4639:A *4613:A 6.58195e-05
7 *4639:A *4621:RESET_B 3.47737e-05
8 *4639:A *4645:A 0
9 *4639:A *207:10 0
10 *4639:A *207:16 0
11 *4639:A *245:10 2.19778e-05
12 *5:13 *4646:A 1.63602e-05
13 *5:13 *4647:A 0
14 *4625:A *4639:A 0
15 *4625:A *5:13 0.000654732
*RES
1 rst_n *5:13 13.4289 
2 *5:13 *4639:A 25.8179 
3 *5:13 *4640:A 13.8 
*END

*D_NET *6 0.000603397
*CONN
*P ui_in[0] I
*I *4646:A I *D sky130_fd_sc_hd__buf_1
*CAP
1 ui_in[0] 0.000283086
2 *4646:A 0.000283086
3 *4646:A *4647:A 2.08644e-05
4 *5:13 *4646:A 1.63602e-05
*RES
1 ui_in[0] *4646:A 23.9611 
*END

*D_NET *7 0.000672022
*CONN
*P ui_in[1] I
*I *4647:A I *D sky130_fd_sc_hd__buf_1
*CAP
1 ui_in[1] 0.000317399
2 *4647:A 0.000317399
3 *4647:A *4648:A 1.63602e-05
4 *4647:A *4650:A 0
5 *4646:A *4647:A 2.08644e-05
6 *5:13 *4647:A 0
*RES
1 ui_in[1] *4647:A 22.9598 
*END

*D_NET *8 0.000524578
*CONN
*P ui_in[2] I
*I *4648:A I *D sky130_fd_sc_hd__buf_1
*CAP
1 ui_in[2] 0.000245929
2 *4648:A 0.000245929
3 *4648:A *4649:A 1.63602e-05
4 *4647:A *4648:A 1.63602e-05
*RES
1 ui_in[2] *4648:A 23.8169 
*END

*D_NET *9 0.000609823
*CONN
*P ui_in[3] I
*I *4649:A I *D sky130_fd_sc_hd__buf_1
*CAP
1 ui_in[3] 0.000286299
2 *4649:A 0.000286299
3 *4649:A *4650:A 2.08644e-05
4 *4648:A *4649:A 1.63602e-05
*RES
1 ui_in[3] *4649:A 23.9611 
*END

*D_NET *10 0.000535152
*CONN
*P ui_in[4] I
*I *4650:A I *D sky130_fd_sc_hd__buf_1
*CAP
1 ui_in[4] 0.000227788
2 *4650:A 0.000227788
3 *4650:A *4651:A 5.87118e-05
4 *4647:A *4650:A 0
5 *4649:A *4650:A 2.08644e-05
*RES
1 ui_in[4] *4650:A 22.8157 
*END

*D_NET *11 0.00055998
*CONN
*P ui_in[5] I
*I *4651:A I *D sky130_fd_sc_hd__buf_1
*CAP
1 ui_in[5] 0.000242454
2 *4651:A 0.000242454
3 *4651:A *4652:A 1.63602e-05
4 *4650:A *4651:A 5.87118e-05
*RES
1 ui_in[5] *4651:A 22.8157 
*END

*D_NET *12 0.000616495
*CONN
*P ui_in[6] I
*I *4652:A I *D sky130_fd_sc_hd__buf_1
*CAP
1 ui_in[6] 0.000291887
2 *4652:A 0.000291887
3 *4652:A *4653:A 1.63602e-05
4 *4651:A *4652:A 1.63602e-05
*RES
1 ui_in[6] *4652:A 23.9611 
*END

*D_NET *13 0.000531698
*CONN
*P ui_in[7] I
*I *4653:A I *D sky130_fd_sc_hd__buf_1
*CAP
1 ui_in[7] 0.000241816
2 *4653:A 0.000241816
3 *4653:A *4454:A1 3.17067e-05
4 *4652:A *4653:A 1.63602e-05
*RES
1 ui_in[7] *4653:A 23.8169 
*END

*D_NET *22 0.00041663
*CONN
*P uio_oe[0] O
*I *4671:LO O *D sky130_fd_sc_hd__conb_1
*CAP
1 uio_oe[0] 0.000129501
2 *4671:LO 0.000129501
3 uio_oe[0] uio_oe[1] 7.88136e-05
4 uio_oe[0] uio_out[7] 7.88136e-05
*RES
1 *4671:LO uio_oe[0] 21.4044 
*END

*D_NET *23 0.00041663
*CONN
*P uio_oe[1] O
*I *4672:LO O *D sky130_fd_sc_hd__conb_1
*CAP
1 uio_oe[1] 0.000129501
2 *4672:LO 0.000129501
3 uio_oe[1] uio_oe[2] 7.88136e-05
4 uio_oe[0] uio_oe[1] 7.88136e-05
*RES
1 *4672:LO uio_oe[1] 21.4044 
*END

*D_NET *24 0.00041663
*CONN
*P uio_oe[2] O
*I *4673:LO O *D sky130_fd_sc_hd__conb_1
*CAP
1 uio_oe[2] 0.000129501
2 *4673:LO 0.000129501
3 uio_oe[2] uio_oe[3] 7.88136e-05
4 uio_oe[1] uio_oe[2] 7.88136e-05
*RES
1 *4673:LO uio_oe[2] 21.4044 
*END

*D_NET *25 0.00041663
*CONN
*P uio_oe[3] O
*I *4674:LO O *D sky130_fd_sc_hd__conb_1
*CAP
1 uio_oe[3] 0.000129501
2 *4674:LO 0.000129501
3 uio_oe[3] uio_oe[4] 7.88136e-05
4 uio_oe[2] uio_oe[3] 7.88136e-05
*RES
1 *4674:LO uio_oe[3] 21.4044 
*END

*D_NET *26 0.00041663
*CONN
*P uio_oe[4] O
*I *4675:LO O *D sky130_fd_sc_hd__conb_1
*CAP
1 uio_oe[4] 0.000129501
2 *4675:LO 0.000129501
3 uio_oe[4] uio_oe[5] 7.88136e-05
4 uio_oe[3] uio_oe[4] 7.88136e-05
*RES
1 *4675:LO uio_oe[4] 21.4044 
*END

*D_NET *27 0.00041663
*CONN
*P uio_oe[5] O
*I *4676:LO O *D sky130_fd_sc_hd__conb_1
*CAP
1 uio_oe[5] 0.000129501
2 *4676:LO 0.000129501
3 uio_oe[5] uio_oe[6] 7.88136e-05
4 uio_oe[4] uio_oe[5] 7.88136e-05
*RES
1 *4676:LO uio_oe[5] 21.4044 
*END

*D_NET *28 0.00041663
*CONN
*P uio_oe[6] O
*I *4677:LO O *D sky130_fd_sc_hd__conb_1
*CAP
1 uio_oe[6] 0.000129501
2 *4677:LO 0.000129501
3 uio_oe[6] uio_oe[7] 7.88136e-05
4 uio_oe[5] uio_oe[6] 7.88136e-05
*RES
1 *4677:LO uio_oe[6] 21.4044 
*END

*D_NET *29 0.000394042
*CONN
*P uio_oe[7] O
*I *4678:LO O *D sky130_fd_sc_hd__conb_1
*CAP
1 uio_oe[7] 0.000157614
2 *4678:LO 0.000157614
3 uio_oe[6] uio_oe[7] 7.88136e-05
*RES
1 *4678:LO uio_oe[7] 21.4044 
*END

*D_NET *30 0.00041663
*CONN
*P uio_out[0] O
*I *4679:LO O *D sky130_fd_sc_hd__conb_1
*CAP
1 uio_out[0] 0.000129501
2 *4679:LO 0.000129501
3 uio_out[0] uio_out[1] 7.88136e-05
4 uio_out[0] uo_out[7] 7.88136e-05
*RES
1 *4679:LO uio_out[0] 21.4044 
*END

*D_NET *31 0.00041663
*CONN
*P uio_out[1] O
*I *4680:LO O *D sky130_fd_sc_hd__conb_1
*CAP
1 uio_out[1] 0.000129501
2 *4680:LO 0.000129501
3 uio_out[1] uio_out[2] 7.88136e-05
4 uio_out[0] uio_out[1] 7.88136e-05
*RES
1 *4680:LO uio_out[1] 21.4044 
*END

*D_NET *32 0.00041663
*CONN
*P uio_out[2] O
*I *4681:LO O *D sky130_fd_sc_hd__conb_1
*CAP
1 uio_out[2] 0.000129501
2 *4681:LO 0.000129501
3 uio_out[2] uio_out[3] 7.88136e-05
4 uio_out[1] uio_out[2] 7.88136e-05
*RES
1 *4681:LO uio_out[2] 21.4044 
*END

*D_NET *33 0.00041663
*CONN
*P uio_out[3] O
*I *4682:LO O *D sky130_fd_sc_hd__conb_1
*CAP
1 uio_out[3] 0.000129501
2 *4682:LO 0.000129501
3 uio_out[3] uio_out[4] 7.88136e-05
4 uio_out[2] uio_out[3] 7.88136e-05
*RES
1 *4682:LO uio_out[3] 21.4044 
*END

*D_NET *34 0.00041663
*CONN
*P uio_out[4] O
*I *4683:LO O *D sky130_fd_sc_hd__conb_1
*CAP
1 uio_out[4] 0.000129501
2 *4683:LO 0.000129501
3 uio_out[4] uio_out[5] 7.88136e-05
4 uio_out[3] uio_out[4] 7.88136e-05
*RES
1 *4683:LO uio_out[4] 21.4044 
*END

*D_NET *35 0.00041663
*CONN
*P uio_out[5] O
*I *4684:LO O *D sky130_fd_sc_hd__conb_1
*CAP
1 uio_out[5] 0.000129501
2 *4684:LO 0.000129501
3 uio_out[5] uio_out[6] 7.88136e-05
4 uio_out[4] uio_out[5] 7.88136e-05
*RES
1 *4684:LO uio_out[5] 21.4044 
*END

*D_NET *36 0.00041663
*CONN
*P uio_out[6] O
*I *4685:LO O *D sky130_fd_sc_hd__conb_1
*CAP
1 uio_out[6] 0.000129501
2 *4685:LO 0.000129501
3 uio_out[6] uio_out[7] 7.88136e-05
4 uio_out[5] uio_out[6] 7.88136e-05
*RES
1 *4685:LO uio_out[6] 21.4044 
*END

*D_NET *37 0.00041663
*CONN
*P uio_out[7] O
*I *4686:LO O *D sky130_fd_sc_hd__conb_1
*CAP
1 uio_out[7] 0.000129501
2 *4686:LO 0.000129501
3 uio_oe[0] uio_out[7] 7.88136e-05
4 uio_out[6] uio_out[7] 7.88136e-05
*RES
1 *4686:LO uio_out[7] 21.4044 
*END

*D_NET *38 0.000421444
*CONN
*P uo_out[0] O
*I *4670:X O *D sky130_fd_sc_hd__clkbuf_1
*CAP
1 uo_out[0] 0.000171315
2 *4670:X 0.000171315
3 uo_out[0] uo_out[1] 7.88136e-05
*RES
1 *4670:X uo_out[0] 21.4044 
*END

*D_NET *39 0.00043281
*CONN
*P uo_out[1] O
*I *4663:X O *D sky130_fd_sc_hd__clkbuf_1
*CAP
1 uo_out[1] 0.000137592
2 *4663:X 0.000137592
3 uo_out[1] uo_out[2] 7.88136e-05
4 uo_out[0] uo_out[1] 7.88136e-05
*RES
1 *4663:X uo_out[1] 21.4044 
*END

*D_NET *40 0.00043281
*CONN
*P uo_out[2] O
*I *4664:X O *D sky130_fd_sc_hd__clkbuf_1
*CAP
1 uo_out[2] 0.000137592
2 *4664:X 0.000137592
3 uo_out[2] uo_out[3] 7.88136e-05
4 uo_out[1] uo_out[2] 7.88136e-05
*RES
1 *4664:X uo_out[2] 21.4044 
*END

*D_NET *41 0.000439996
*CONN
*P uo_out[3] O
*I *4665:X O *D sky130_fd_sc_hd__clkbuf_1
*CAP
1 uo_out[3] 0.000141185
2 *4665:X 0.000141185
3 uo_out[3] uo_out[4] 7.88136e-05
4 uo_out[2] uo_out[3] 7.88136e-05
*RES
1 *4665:X uo_out[3] 21.4044 
*END

*D_NET *42 0.000427297
*CONN
*P uo_out[4] O
*I *4666:X O *D sky130_fd_sc_hd__clkbuf_1
*CAP
1 uo_out[4] 0.000134835
2 *4666:X 0.000134835
3 uo_out[4] uo_out[5] 7.88136e-05
4 uo_out[3] uo_out[4] 7.88136e-05
*RES
1 *4666:X uo_out[4] 21.4044 
*END

*D_NET *43 0.00041663
*CONN
*P uo_out[5] O
*I *4667:X O *D sky130_fd_sc_hd__clkbuf_1
*CAP
1 uo_out[5] 0.000129501
2 *4667:X 0.000129501
3 uo_out[5] uo_out[6] 7.88136e-05
4 uo_out[4] uo_out[5] 7.88136e-05
*RES
1 *4667:X uo_out[5] 21.4044 
*END

*D_NET *44 0.00041663
*CONN
*P uo_out[6] O
*I *4668:X O *D sky130_fd_sc_hd__clkbuf_1
*CAP
1 uo_out[6] 0.000129501
2 *4668:X 0.000129501
3 uo_out[6] uo_out[7] 7.88136e-05
4 uo_out[5] uo_out[6] 7.88136e-05
*RES
1 *4668:X uo_out[6] 21.4044 
*END

*D_NET *45 0.00041663
*CONN
*P uo_out[7] O
*I *4669:X O *D sky130_fd_sc_hd__clkbuf_1
*CAP
1 uo_out[7] 0.000129501
2 *4669:X 0.000129501
3 uio_out[0] uo_out[7] 7.88136e-05
4 uo_out[6] uo_out[7] 7.88136e-05
*RES
1 *4669:X uo_out[7] 21.4044 
*END

*D_NET *46 0.00180523
*CONN
*I *4617:D I *D sky130_fd_sc_hd__dfrtp_4
*I *4453:Y O *D sky130_fd_sc_hd__inv_1
*CAP
1 *4617:D 0.000306241
2 *4453:Y 0.000306241
3 *4617:D *4456:A1 0.000150611
4 *4617:D *4595:B 0.000703588
5 *4617:D *4643:A 0.000338546
6 *4617:D *256:12 0
*RES
1 *4453:Y *4617:D 36.8589 
*END

*D_NET *47 0.000691704
*CONN
*I *4618:D I *D sky130_fd_sc_hd__dfrtp_4
*I *4595:X O *D sky130_fd_sc_hd__xor2_1
*CAP
1 *4618:D 0.000273286
2 *4595:X 0.000273286
3 *4618:D *4595:A 0.000101627
4 *4618:D *213:40 4.35048e-05
*RES
1 *4595:X *4618:D 31.8321 
*END

*D_NET *48 0.000534131
*CONN
*I *4619:D I *D sky130_fd_sc_hd__dfrtp_1
*I *4598:Y O *D sky130_fd_sc_hd__nor2_1
*CAP
1 *4619:D 0.000153761
2 *4598:Y 0.000153761
3 *4619:D *4597:B1 8.35776e-05
4 *4619:D *4598:B 2.11368e-05
5 *4619:D *4619:CLK 0.000121894
*RES
1 *4598:Y *4619:D 22.1536 
*END

*D_NET *49 0.000486475
*CONN
*I *4620:D I *D sky130_fd_sc_hd__dfrtp_4
*I *4601:Y O *D sky130_fd_sc_hd__nor2_1
*CAP
1 *4620:D 0.000124368
2 *4601:Y 0.000124368
3 *4620:D *4620:CLK 4.79842e-05
4 *4620:D *4627:A 0
5 *4620:D *206:16 3.67142e-05
6 *4625:A *4620:D 0.00015304
*RES
1 *4601:Y *4620:D 30.4929 
*END

*D_NET *50 0.00134457
*CONN
*I *4621:D I *D sky130_fd_sc_hd__dfrtp_4
*I *4602:X O *D sky130_fd_sc_hd__xor2_1
*CAP
1 *4621:D 0.000290426
2 *4602:X 0.000290426
3 *4621:D *4626:A 0.000125717
4 *4621:D *141:8 6.17227e-05
5 *4621:D *141:10 4.1331e-06
6 *4621:D *207:40 0.000572143
7 *4621:D *212:10 0
*RES
1 *4602:X *4621:D 35.3143 
*END

*D_NET *51 0.000670583
*CONN
*I *4622:D I *D sky130_fd_sc_hd__dfrtp_4
*I *4605:Y O *D sky130_fd_sc_hd__nor2_1
*CAP
1 *4622:D 0.000132938
2 *4605:Y 0.000132938
3 *4622:D *208:8 0.000404707
*RES
1 *4605:Y *4622:D 22.4214 
*END

*D_NET *52 0.000585046
*CONN
*I *4623:D I *D sky130_fd_sc_hd__dfrtp_4
*I *4608:X O *D sky130_fd_sc_hd__and2_1
*CAP
1 *4623:D 0.000224284
2 *4608:X 0.000224284
3 *4623:D *4623:CLK 0.000104611
4 *4623:D *145:12 3.18676e-05
*RES
1 *4608:X *4623:D 22.8321 
*END

*D_NET *53 0.00121453
*CONN
*I *4624:D I *D sky130_fd_sc_hd__dfrtp_1
*I *4609:Y O *D sky130_fd_sc_hd__xnor2_1
*CAP
1 *4624:D 0.000359625
2 *4609:Y 0.000359625
3 *4624:D *4609:A 0.000495276
*RES
1 *4609:Y *4624:D 24.0821 
*END

*D_NET *54 0.00894276
*CONN
*I *4617:RESET_B I *D sky130_fd_sc_hd__dfrtp_4
*I *4472:A1 I *D sky130_fd_sc_hd__o21ai_2
*I *4469:A1 I *D sky130_fd_sc_hd__o21ai_4
*I *4461:A1 I *D sky130_fd_sc_hd__o21ai_4
*I *4474:A I *D sky130_fd_sc_hd__or2_4
*I *4464:A1 I *D sky130_fd_sc_hd__o21ai_1
*I *4452:Y O *D sky130_fd_sc_hd__inv_6
*CAP
1 *4617:RESET_B 0.000429537
2 *4472:A1 0
3 *4469:A1 0.000256627
4 *4461:A1 2.52056e-05
5 *4474:A 0.000831902
6 *4464:A1 9.02814e-05
7 *4452:Y 0
8 *54:25 0.00117083
9 *54:12 0.000558327
10 *54:10 0.00067097
11 *54:8 0.000577803
12 *54:6 0.000747322
13 *4461:A1 *4461:A2 5.52302e-05
14 *4464:A1 *4464:A2 4.43256e-05
15 *4464:A1 *4464:B1 5.71472e-05
16 *4464:A1 *157:6 0.00014183
17 *4469:A1 *162:8 0.000613026
18 *4474:A *4460:B 1.56467e-05
19 *4474:A *4462:A1 0
20 *4474:A *4474:B 0.000801966
21 *4474:A *232:27 0.000263857
22 *4474:A *232:49 0
23 *4474:A *255:12 0.000120472
24 *4617:RESET_B *203:14 0
25 *4617:RESET_B *255:12 3.06406e-05
26 *54:8 *4452:A 0.000223784
27 *54:8 *4471:A1 3.10821e-05
28 *54:8 *203:14 0
29 *54:8 *253:10 0
30 *54:8 *255:12 0.00031593
31 *54:10 *4471:A1 7.49239e-05
32 *54:10 *158:14 8.04913e-05
33 *54:10 *253:10 0
34 *54:10 *255:12 0.000209218
35 *54:12 *158:14 0.000141245
36 *54:12 *255:12 0.00014384
37 *54:25 *158:14 2.8266e-06
38 *54:25 *253:10 0
39 *54:25 *255:12 0.000216478
*RES
1 *4452:Y *54:6 13.8 
2 *54:6 *54:8 10.4464 
3 *54:8 *54:10 7.41071 
4 *54:10 *54:12 4.98214 
5 *54:12 *4464:A1 16.1036 
6 *54:12 *54:25 7.41071 
7 *54:25 *4474:A 32.5857 
8 *54:25 *4461:A1 14.3357 
9 *54:10 *4469:A1 19.675 
10 *54:8 *4472:A1 13.8 
11 *54:6 *4617:RESET_B 10.5625 
*END

*D_NET *55 0.000437766
*CONN
*I *4618:RESET_B I *D sky130_fd_sc_hd__dfrtp_4
*I *4610:Y O *D sky130_fd_sc_hd__inv_1
*CAP
1 *4618:RESET_B 0.000165035
2 *4610:Y 0.000165035
3 *4618:RESET_B *4610:A 8.48822e-06
4 *4618:RESET_B *4644:A 3.17163e-05
5 *4618:RESET_B *204:14 6.74911e-05
*RES
1 *4610:Y *4618:RESET_B 21.2911 
*END

*D_NET *56 0.000373425
*CONN
*I *4619:RESET_B I *D sky130_fd_sc_hd__dfrtp_1
*I *4611:Y O *D sky130_fd_sc_hd__inv_1
*CAP
1 *4619:RESET_B 0.000104455
2 *4611:Y 0.000104455
3 *4619:RESET_B *4611:A 9.75337e-06
4 *4619:RESET_B *4642:A 0.000154762
*RES
1 *4611:Y *4619:RESET_B 20.5768 
*END

*D_NET *57 0.000380965
*CONN
*I *4620:RESET_B I *D sky130_fd_sc_hd__dfrtp_4
*I *4612:Y O *D sky130_fd_sc_hd__inv_1
*CAP
1 *4620:RESET_B 0.000107429
2 *4612:Y 0.000107429
3 *4620:RESET_B *4612:A 1.14548e-05
4 *4620:RESET_B *206:14 5.13992e-05
5 *4620:RESET_B *247:10 0.000103253
*RES
1 *4612:Y *4620:RESET_B 20.3804 
*END

*D_NET *58 0.000317152
*CONN
*I *4621:RESET_B I *D sky130_fd_sc_hd__dfrtp_4
*I *4613:Y O *D sky130_fd_sc_hd__inv_1
*CAP
1 *4621:RESET_B 0.000116557
2 *4613:Y 0.000116557
3 *4621:RESET_B *4613:A 1.67305e-05
4 *4621:RESET_B *207:10 9.11365e-06
5 *4621:RESET_B *207:16 2.34204e-05
6 *4639:A *4621:RESET_B 3.47737e-05
*RES
1 *4613:Y *4621:RESET_B 20.3804 
*END

*D_NET *59 0.000241983
*CONN
*I *4622:RESET_B I *D sky130_fd_sc_hd__dfrtp_4
*I *4614:Y O *D sky130_fd_sc_hd__inv_1
*CAP
1 *4622:RESET_B 0.000111166
2 *4614:Y 0.000111166
3 *4622:RESET_B *4616:A 1.96517e-05
4 *4622:RESET_B *245:10 0
*RES
1 *4614:Y *4622:RESET_B 19.9696 
*END

*D_NET *60 0.000392985
*CONN
*I *4623:RESET_B I *D sky130_fd_sc_hd__dfrtp_4
*I *4615:Y O *D sky130_fd_sc_hd__inv_1
*CAP
1 *4623:RESET_B 0.000182488
2 *4615:Y 0.000182488
3 *4623:RESET_B *209:10 0
4 *4623:RESET_B *209:38 2.80081e-05
*RES
1 *4615:Y *4623:RESET_B 21.5946 
*END

*D_NET *61 0.000428761
*CONN
*I *4624:RESET_B I *D sky130_fd_sc_hd__dfrtp_1
*I *4616:Y O *D sky130_fd_sc_hd__inv_1
*CAP
1 *4624:RESET_B 0.000207343
2 *4616:Y 0.000207343
3 *4624:RESET_B *4616:A 1.40749e-05
4 *4624:RESET_B *210:10 0
*RES
1 *4616:Y *4624:RESET_B 21.7018 
*END

*D_NET *62 0.00585449
*CONN
*I *4511:B1 I *D sky130_fd_sc_hd__a32o_1
*I *4510:X O *D sky130_fd_sc_hd__o31a_1
*CAP
1 *4511:B1 0
2 *4510:X 9.3517e-05
3 *62:14 0.00174145
4 *62:8 0.00183497
5 *62:8 *4510:A1 8.07313e-05
6 *62:14 *4491:B 0
7 *62:14 *4510:A3 0
8 *62:14 *4511:A1 0.000124073
9 *62:14 *4517:A1 0.000163231
10 *62:14 *4561:A1 0.000542984
11 *62:14 *4561:B1 0.00010326
12 *62:14 *162:39 0.000202835
13 *62:14 *162:93 0.000112323
14 *62:14 *169:22 0
15 *62:14 *169:43 1.94945e-05
16 *62:14 *170:20 0.000114596
17 *62:14 *185:23 0
18 *62:14 *185:40 0
19 *62:14 *185:49 0
20 *62:14 *216:6 2.42516e-05
21 *62:14 *222:12 0.000281262
22 *62:14 *222:65 0.00013254
23 *62:14 *228:22 0.000282973
*RES
1 *4510:X *62:8 15.1571 
2 *62:8 *62:14 40.9911 
3 *62:14 *4511:B1 9.3 
*END

*D_NET *63 0.000852204
*CONN
*I *4513:B1 I *D sky130_fd_sc_hd__a311o_1
*I *4512:Y O *D sky130_fd_sc_hd__a21oi_1
*CAP
1 *4513:B1 0.000236891
2 *4512:Y 0.000236891
3 *4513:B1 *4513:A1 7.18124e-06
4 *4513:B1 *4513:C1 4.72749e-05
5 *4513:B1 *4556:A1 1.28585e-05
6 *4513:B1 *4556:B2 4.21517e-05
7 *4513:B1 *130:26 0.000201965
8 *4513:B1 *148:101 3.69047e-06
9 *4513:B1 *191:12 2.06178e-05
10 *4513:B1 *191:25 2.31879e-05
11 *4513:B1 *223:14 1.94945e-05
*RES
1 *4512:Y *4513:B1 37.1124 
*END

*D_NET *64 0.00192621
*CONN
*I *4521:A1 I *D sky130_fd_sc_hd__a31o_1
*I *4513:X O *D sky130_fd_sc_hd__a311o_1
*CAP
1 *4521:A1 0.000696436
2 *4513:X 0.000696436
3 *4521:A1 *4521:A2 2.89016e-05
4 *4521:A1 *4521:A3 5.52302e-05
5 *4521:A1 *130:26 0.000449211
*RES
1 *4513:X *4521:A1 31.475 
*END

*D_NET *65 0.0148454
*CONN
*I *4525:B1 I *D sky130_fd_sc_hd__a211o_1
*I *4515:B I *D sky130_fd_sc_hd__nor2_2
*I *4516:C I *D sky130_fd_sc_hd__or4b_1
*I *4518:B1 I *D sky130_fd_sc_hd__a211o_1
*I *4567:A3 I *D sky130_fd_sc_hd__o32a_1
*I *4537:B1 I *D sky130_fd_sc_hd__a211o_1
*I *4514:X O *D sky130_fd_sc_hd__and2b_4
*CAP
1 *4525:B1 0.000143836
2 *4515:B 0.00023858
3 *4516:C 0
4 *4518:B1 0.000736199
5 *4567:A3 0
6 *4537:B1 0
7 *4514:X 0.000190136
8 *65:40 0.000858218
9 *65:38 0.00205423
10 *65:32 0.00218835
11 *65:19 0.000542659
12 *65:8 0.000381913
13 *4515:B *185:49 9.47299e-05
14 *4515:B *186:18 0.000410271
15 *4515:B *218:8 9.22103e-06
16 *4515:B *222:12 5.30637e-06
17 *4515:B *228:28 0.000452776
18 *4515:B *228:30 4.66203e-05
19 *4518:B1 *4479:A 2.80853e-05
20 *4518:B1 *4491:A 4.58192e-05
21 *4518:B1 *4494:A1 0
22 *4518:B1 *4494:B1 0.000688841
23 *4518:B1 *4494:B2 0.000515441
24 *4518:B1 *4495:B 0
25 *4518:B1 *4517:B1 4.87953e-05
26 *4518:B1 *4518:A1 1.97695e-05
27 *4518:B1 *4518:C1 9.60875e-05
28 *4518:B1 *130:34 4.47762e-05
29 *4518:B1 *175:48 0.000177142
30 *4518:B1 *179:63 0.000478005
31 *4518:B1 *185:40 3.20153e-05
32 *4518:B1 *228:30 5.80706e-06
33 *4518:B1 *239:14 0
34 *4525:B1 *4513:A2 0.000165228
35 *4525:B1 *4535:B 0.000292285
36 *4525:B1 *4539:A2 3.43988e-06
37 *4525:B1 *4563:A_N 3.22681e-05
38 *4525:B1 *186:24 8.94221e-05
39 *65:8 *4514:B 3.79467e-05
40 *65:8 *4556:A1 0.000148196
41 *65:8 *4567:B1 2.61337e-05
42 *65:8 *179:12 1.69115e-05
43 *65:8 *192:29 8.359e-05
44 *65:8 *223:27 1.00375e-05
45 *65:19 *4530:C1 0.000414762
46 *65:19 *4556:A1 0.000581024
47 *65:19 *4567:B1 8.21706e-05
48 *65:32 *4513:A2 0.000221678
49 *65:32 *4513:C1 0.000126446
50 *65:32 *4535:B 0.000130583
51 *65:32 *4556:A3 2.84976e-05
52 *65:32 *4567:A2 9.41642e-05
53 *65:32 *4567:B2 3.36025e-05
54 *65:32 *4571:A2_N 0.000139913
55 *65:32 *148:12 1.21258e-05
56 *65:32 *148:23 8.43535e-06
57 *65:32 *191:12 0.000146312
58 *65:32 *191:25 0.000144353
59 *65:38 *4504:A2 0.000520522
60 *65:38 *4635:A 1.15172e-05
61 *65:38 *168:30 0.000113083
62 *65:38 *224:12 0.000401161
63 *65:40 *185:40 4.1331e-06
64 *65:40 *185:49 7.59437e-05
65 *65:40 *228:30 0.000115873
*RES
1 *4514:X *65:8 18.175 
2 *65:8 *4537:B1 13.8 
3 *65:8 *65:19 11.9107 
4 *65:19 *4567:A3 9.3 
5 *65:19 *65:32 13.2143 
6 *65:32 *65:38 30.8929 
7 *65:38 *65:40 3.16071 
8 *65:40 *4518:B1 42.4429 
9 *65:40 *4516:C 13.8 
10 *65:38 *4515:B 21.8179 
11 *65:32 *4525:B1 17.8714 
*END

*D_NET *66 0.00437959
*CONN
*I *4549:A2 I *D sky130_fd_sc_hd__a22o_1
*I *4552:A2 I *D sky130_fd_sc_hd__a31o_1
*I *4565:B1 I *D sky130_fd_sc_hd__a221o_1
*I *4515:Y O *D sky130_fd_sc_hd__nor2_2
*CAP
1 *4549:A2 0.000614165
2 *4552:A2 0.000152112
3 *4565:B1 0.000153815
4 *4515:Y 0.000108103
5 *66:23 0.00113684
6 *66:8 0.000632482
7 *4549:A2 *4552:A1 0
8 *4549:A2 *4555:A1 2.6949e-05
9 *4549:A2 *4555:A2 7.15846e-05
10 *4549:A2 *228:14 5.33005e-05
11 *4552:A2 *4554:A 2.78584e-05
12 *4552:A2 *99:37 0.000178593
13 *4565:B1 *4565:A1 0.000148189
14 *4565:B1 *4565:A2 0
15 *4565:B1 *4565:C1 1.3701e-05
16 *4565:B1 *4566:B1 1.68344e-05
17 *4565:B1 *227:43 0
18 *66:8 *186:18 0.000284018
19 *66:8 *222:12 0.000528324
20 *66:23 *4555:A1 2.56694e-05
21 *66:23 *4565:A1 0.000207047
22 *66:23 *154:47 0
23 *66:23 *169:22 0
24 *66:23 *227:43 0
*RES
1 *4515:Y *66:8 18.8536 
2 *66:8 *4565:B1 16.7107 
3 *66:8 *66:23 6.5 
4 *66:23 *4552:A2 16.3 
5 *66:23 *4549:A2 23.925 
*END

*D_NET *67 0.000683404
*CONN
*I *4517:B1 I *D sky130_fd_sc_hd__o31a_1
*I *4516:X O *D sky130_fd_sc_hd__or4b_1
*CAP
1 *4517:B1 0.000139331
2 *4516:X 0.000139331
3 *4517:B1 *4633:A 0.000178847
4 *4517:B1 *130:26 1.97695e-05
5 *4517:B1 *130:34 6.71854e-05
6 *4517:B1 *239:8 9.0145e-05
7 *4518:B1 *4517:B1 4.87953e-05
*RES
1 *4516:X *4517:B1 22.4571 
*END

*D_NET *68 0.00037406
*CONN
*I *4521:A2 I *D sky130_fd_sc_hd__a31o_1
*I *4517:X O *D sky130_fd_sc_hd__o31a_1
*CAP
1 *4521:A2 5.3617e-05
2 *4517:X 5.3617e-05
3 *4521:A2 *4521:B1 5.52238e-05
4 *4521:A2 *130:26 0.0001827
5 *4521:A1 *4521:A2 2.89016e-05
*RES
1 *4517:X *4521:A2 20.3679 
*END

*D_NET *69 0.000566991
*CONN
*I *4520:B I *D sky130_fd_sc_hd__nand3_1
*I *4518:X O *D sky130_fd_sc_hd__a211o_1
*CAP
1 *4520:B 0.000159983
2 *4518:X 0.000159983
3 *4520:B *4500:B 1.65758e-05
4 *4520:B *4501:B2 0.000123288
5 *4520:B *4519:A1 6.20091e-06
6 *4520:B *151:42 0.00010096
*RES
1 *4518:X *4520:B 30.4929 
*END

*D_NET *70 0.000534415
*CONN
*I *4520:C I *D sky130_fd_sc_hd__nand3_1
*I *4519:X O *D sky130_fd_sc_hd__a21o_1
*CAP
1 *4520:C 0.000121206
2 *4519:X 0.000121206
3 *4520:C *4500:B 4.87953e-05
4 *4520:C *4519:A1 0.000147114
5 *4520:C *193:21 9.60939e-05
*RES
1 *4519:X *4520:C 30.4929 
*END

*D_NET *71 0.00133633
*CONN
*I *4521:A3 I *D sky130_fd_sc_hd__a31o_1
*I *4520:Y O *D sky130_fd_sc_hd__nand3_1
*CAP
1 *4521:A3 0.000404762
2 *4520:Y 0.000404762
3 *4521:A3 *4500:B 0.000259329
4 *4521:A3 *4519:A1 0
5 *4521:A3 *4571:A1_N 5.58941e-05
6 *4521:A3 *4572:A3 0.000127446
7 *4521:A3 *130:26 2.89114e-05
8 *4521:A1 *4521:A3 5.52302e-05
*RES
1 *4520:Y *4521:A3 37.0643 
*END

*D_NET *72 0.00319126
*CONN
*I *4532:A I *D sky130_fd_sc_hd__nand3_1
*I *4521:X O *D sky130_fd_sc_hd__a31o_1
*CAP
1 *4532:A 0.00072884
2 *4521:X 0.00072884
3 *4532:A *4500:B 0.000186489
4 *4532:A *4532:B 5.7661e-06
5 *4532:A *4534:A2 2.89016e-05
6 *4532:A *4572:A2 0.000146395
7 *4532:A *4572:A3 0.000499762
8 *4532:A *4572:B1 0.000287805
9 *4532:A *109:18 0.000467556
10 *4532:A *130:26 5.52302e-05
11 *4532:A *169:113 3.16801e-05
12 *4532:A *242:23 4.46186e-06
13 *4532:A *242:34 1.95304e-05
*RES
1 *4521:X *4532:A 47.0375 
*END

*D_NET *73 0.000328494
*CONN
*I *4561:A2 I *D sky130_fd_sc_hd__a221o_1
*I *4522:Y O *D sky130_fd_sc_hd__nor2_1
*CAP
1 *4561:A2 9.25518e-05
2 *4522:Y 9.25518e-05
3 *4561:A2 *4522:B 1.04232e-05
4 *4561:A2 *4561:A1 3.99614e-06
5 *4561:A2 *196:6 2.44318e-05
6 *4561:A2 *196:16 0.000104539
*RES
1 *4522:Y *4561:A2 20.7161 
*END

*D_NET *74 0.000407011
*CONN
*I *4532:B I *D sky130_fd_sc_hd__nand3_1
*I *4523:X O *D sky130_fd_sc_hd__or4_1
*CAP
1 *4532:B 0.000149356
2 *4523:X 0.000149356
3 *4532:B *4532:C 1.26567e-05
4 *4532:B *4534:A2 3.46465e-05
5 *4532:B *109:18 5.52302e-05
6 *4532:A *4532:B 5.7661e-06
*RES
1 *4523:X *4532:B 21.225 
*END

*D_NET *75 0.00342935
*CONN
*I *4594:A I *D sky130_fd_sc_hd__nor2_1
*I *4529:B I *D sky130_fd_sc_hd__and3_1
*I *4536:A3 I *D sky130_fd_sc_hd__a31oi_1
*I *4524:X O *D sky130_fd_sc_hd__a21o_1
*CAP
1 *4594:A 0.000322456
2 *4529:B 0.000217197
3 *4536:A3 4.60863e-05
4 *4524:X 0.000642126
5 *75:10 0.000318065
6 *75:8 0.00101936
7 *4529:B *4536:A1 5.33433e-05
8 *4529:B *4539:A1 0.000144773
9 *4536:A3 *4548:B1 0
10 *4536:A3 *4550:A 1.76039e-05
11 *4536:A3 *222:39 3.17163e-05
12 *4594:A *4548:B1 0
13 *4594:A *222:39 1.08359e-05
14 *75:8 *222:39 9.71197e-05
15 *75:8 *229:17 0.000475197
16 *75:10 *222:39 3.34687e-05
*RES
1 *4524:X *75:8 22.9607 
2 *75:8 *75:10 1.03571 
3 *75:10 *4536:A3 14.8357 
4 *75:10 *4529:B 16.8 
5 *75:8 *4594:A 19.1393 
*END

*D_NET *76 0.00158567
*CONN
*I *4529:C I *D sky130_fd_sc_hd__and3_1
*I *4525:X O *D sky130_fd_sc_hd__a211o_1
*CAP
1 *4529:C 0.000321627
2 *4525:X 0.000321627
3 *4529:C *4529:A 0.000497333
4 *4529:C *4535:B 0
5 *4529:C *4536:B1 9.50968e-06
6 *4529:C *4547:A3 0.000332779
7 *4529:C *4548:B1 2.56601e-05
8 *4529:C *4560:A2 7.71321e-05
*RES
1 *4525:X *4529:C 36.1179 
*END

*D_NET *77 0.00221063
*CONN
*I *4531:B1 I *D sky130_fd_sc_hd__o21ai_1
*I *4547:A1 I *D sky130_fd_sc_hd__a31o_1
*I *4560:C1 I *D sky130_fd_sc_hd__o211a_1
*I *4526:Y O *D sky130_fd_sc_hd__nor2_1
*CAP
1 *4531:B1 0
2 *4547:A1 0
3 *4560:C1 0.000197101
4 *4526:Y 2.08448e-05
5 *77:14 0.000574416
6 *77:6 0.00039816
7 *4560:C1 *4529:A 0
8 *4560:C1 *4536:A2 0.00020212
9 *4560:C1 *4547:B1 5.52238e-05
10 *4560:C1 *4560:B1 5.80706e-06
11 *77:6 *4539:B1 3.18676e-05
12 *77:6 *99:37 8.76257e-05
13 *77:14 *4539:B1 0.000160287
14 *77:14 *4547:A2 0.000129901
15 *77:14 *4547:B1 3.80079e-05
16 *77:14 *99:37 0.000309266
*RES
1 *4526:Y *77:6 10.2464 
2 *77:6 *77:14 7.46429 
3 *77:14 *4560:C1 22.6214 
4 *77:14 *4547:A1 9.3 
5 *77:6 *4531:B1 9.3 
*END

*D_NET *78 0.000737464
*CONN
*I *4570:B1 I *D sky130_fd_sc_hd__a22o_1
*I *4527:Y O *D sky130_fd_sc_hd__nand2_1
*CAP
1 *4570:B1 0.000291952
2 *4527:Y 0.000291952
3 *4570:B1 *4482:B 3.34672e-05
4 *4570:B1 *4505:A1 0
5 *4570:B1 *4505:B1 6.4549e-05
6 *4570:B1 *4570:B2 5.80706e-06
7 *4570:B1 *118:10 0
8 *4570:B1 *175:23 2.89114e-05
9 *4570:B1 *199:12 5.80706e-06
10 *4570:B1 *244:10 1.50181e-05
*RES
1 *4527:Y *4570:B1 32.1357 
*END

*D_NET *79 0.000470622
*CONN
*I *4530:B1 I *D sky130_fd_sc_hd__o211a_1
*I *4528:X O *D sky130_fd_sc_hd__a21o_1
*CAP
1 *4530:B1 0.000119451
2 *4528:X 0.000119451
3 *4530:B1 *4528:B1 9.90431e-05
4 *4530:B1 *4535:A 6.74911e-05
5 *4530:B1 *4556:A3 6.5185e-05
*RES
1 *4528:X *4530:B1 30.1893 
*END

*D_NET *80 0.00105553
*CONN
*I *4531:A1 I *D sky130_fd_sc_hd__o21ai_1
*I *4529:X O *D sky130_fd_sc_hd__and3_1
*CAP
1 *4531:A1 0.0003292
2 *4529:X 0.0003292
3 *4531:A1 *4535:A 0.000125724
4 *4531:A1 *4536:B1 0.000137427
5 *4531:A1 *4539:A1 0.000133983
*RES
1 *4529:X *4531:A1 32.6536 
*END

*D_NET *81 0.00368806
*CONN
*I *4531:A2 I *D sky130_fd_sc_hd__o21ai_1
*I *4530:X O *D sky130_fd_sc_hd__o211a_1
*CAP
1 *4531:A2 0.000997657
2 *4530:X 0.000997657
3 *4531:A2 *4526:A 0
4 *4531:A2 *4535:A 0.0015785
5 *4531:A2 *4538:B1 0
6 *4531:A2 *99:37 5.33005e-05
7 *4531:A2 *112:20 4.65158e-06
8 *4531:A2 *184:23 5.62995e-05
*RES
1 *4530:X *4531:A2 49.5464 
*END

*D_NET *82 0.00144471
*CONN
*I *4532:C I *D sky130_fd_sc_hd__nand3_1
*I *4531:Y O *D sky130_fd_sc_hd__o21ai_1
*CAP
1 *4532:C 0.000444623
2 *4531:Y 0.000444623
3 *4532:C *4535:A 6.97972e-05
4 *4532:C *169:113 0.000344859
5 *4532:C *169:117 0.000128154
6 *4532:B *4532:C 1.26567e-05
*RES
1 *4531:Y *4532:C 38.4214 
*END

*D_NET *83 0.00171173
*CONN
*I *4534:A2 I *D sky130_fd_sc_hd__a22o_1
*I *4532:Y O *D sky130_fd_sc_hd__nand3_1
*CAP
1 *4534:A2 0.000403453
2 *4532:Y 0.000403453
3 *4534:A2 *4523:B 5.52238e-05
4 *4534:A2 *4534:B1 0.000184635
5 *4534:A2 *4573:A2 0.000288712
6 *4534:A2 *109:18 0.000119477
7 *4534:A2 *169:113 0.00014285
8 *4534:A2 *229:30 5.03787e-05
9 *4534:A2 *242:34 0
10 *4532:A *4534:A2 2.89016e-05
11 *4532:B *4534:A2 3.46465e-05
*RES
1 *4532:Y *4534:A2 38.5286 
*END

*D_NET *84 0.00246759
*CONN
*I *4549:B1 I *D sky130_fd_sc_hd__a22o_1
*I *4534:B1 I *D sky130_fd_sc_hd__a22o_1
*I *4533:X O *D sky130_fd_sc_hd__a21o_1
*CAP
1 *4549:B1 0.000526667
2 *4534:B1 0.000271909
3 *4533:X 0
4 *84:4 0.000798576
5 *4534:B1 *4533:B1 4.72818e-05
6 *4534:B1 *4534:B2 5.80706e-06
7 *4534:B1 *4572:B1 0
8 *4549:B1 *4533:B1 0.000313241
9 *4549:B1 *222:39 0.000238795
10 *4549:B1 *228:14 5.17614e-05
11 *4549:B1 *228:22 2.89114e-05
12 *4534:A2 *4534:B1 0.000184635
*RES
1 *4533:X *84:4 9.3 
2 *84:4 *4534:B1 24.05 
3 *84:4 *4549:B1 19.6929 
*END

*D_NET *85 0.000199355
*CONN
*I *4548:A2 I *D sky130_fd_sc_hd__a22o_1
*I *4535:Y O *D sky130_fd_sc_hd__nand2_1
*CAP
1 *4548:A2 9.96777e-05
2 *4535:Y 9.96777e-05
3 *4548:A2 *4548:B1 0
4 *4548:A2 *4548:B2 0
*RES
1 *4535:Y *4548:A2 29.2429 
*END

*D_NET *86 0.00143872
*CONN
*I *4539:A1 I *D sky130_fd_sc_hd__o21a_1
*I *4536:Y O *D sky130_fd_sc_hd__a31oi_1
*CAP
1 *4539:A1 0.00030876
2 *4536:Y 0.00030876
3 *4539:A1 *4535:A 5.31541e-05
4 *4539:A1 *4536:B1 0.000259586
5 *4539:A1 *4593:A 5.66157e-05
6 *4539:A1 *160:68 0.00017309
7 *4529:B *4539:A1 0.000144773
8 *4531:A1 *4539:A1 0.000133983
*RES
1 *4536:Y *4539:A1 35.5107 
*END

*D_NET *87 0.000775065
*CONN
*I *4538:B2 I *D sky130_fd_sc_hd__a32o_1
*I *4537:X O *D sky130_fd_sc_hd__a211o_1
*CAP
1 *4538:B2 0.000194191
2 *4537:X 0.000194191
3 *4538:B2 *4528:B1 0.00010096
4 *4538:B2 *4556:A3 0.000167275
5 *4538:B2 *4556:B2 1.19402e-05
6 *4538:B2 *244:35 0.000106507
*RES
1 *4537:X *4538:B2 32.6179 
*END

*D_NET *88 0.00355683
*CONN
*I *4539:A2 I *D sky130_fd_sc_hd__o21a_1
*I *4538:X O *D sky130_fd_sc_hd__a32o_1
*CAP
1 *4539:A2 0.000687343
2 *4538:X 0.000687343
3 *4539:A2 *4513:A2 3.074e-05
4 *4539:A2 *4535:A 2.87473e-05
5 *4539:A2 *4535:B 0
6 *4539:A2 *4538:A2 7.83659e-05
7 *4539:A2 *4538:B1 0.00018077
8 *4539:A2 *4556:A3 0.0006647
9 *4539:A2 *4563:A_N 1.83776e-05
10 *4539:A2 *4563:B 1.3142e-05
11 *4539:A2 *4593:D 0.000454826
12 *4539:A2 *130:26 2.11419e-05
13 *4539:A2 *160:68 0.000620622
14 *4539:A2 *186:24 4.61329e-05
15 *4539:A2 *228:62 2.11419e-05
16 *4525:B1 *4539:A2 3.43988e-06
*RES
1 *4538:X *4539:A2 47.4036 
*END

*D_NET *89 0.000421605
*CONN
*I *4547:B1 I *D sky130_fd_sc_hd__a31o_1
*I *4539:X O *D sky130_fd_sc_hd__o21a_1
*CAP
1 *4547:B1 0.000141277
2 *4539:X 0.000141277
3 *4547:B1 *4547:A2 4.58194e-05
4 *4560:C1 *4547:B1 5.52238e-05
5 *77:14 *4547:B1 3.80079e-05
*RES
1 *4539:X *4547:B1 21.1893 
*END

*D_NET *90 0.00186808
*CONN
*I *4550:C I *D sky130_fd_sc_hd__and3_4
*I *4545:A3 I *D sky130_fd_sc_hd__a31o_1
*I *4541:C_N I *D sky130_fd_sc_hd__or3b_1
*I *4540:Y O *D sky130_fd_sc_hd__nand2_1
*CAP
1 *4550:C 6.87546e-05
2 *4545:A3 0
3 *4541:C_N 7.42539e-05
4 *4540:Y 7.33081e-05
5 *90:12 0.000129891
6 *90:10 0.0001977
7 *4541:C_N *4484:B 7.79781e-06
8 *4541:C_N *228:76 9.47456e-05
9 *4541:C_N *244:116 0.000202128
10 *4550:C *4545:B1 0.000257589
11 *4550:C *180:25 0.000349059
12 *4550:C *231:39 1.46231e-05
13 *90:10 *4484:B 0.000125731
14 *90:10 *4524:B1 0
15 *90:12 *4524:B1 1.98839e-05
16 *90:12 *4545:A2 1.55885e-05
17 *90:12 *4545:B1 5.52302e-05
18 *90:12 *180:25 0.000181796
*RES
1 *4540:Y *90:10 19.9429 
2 *90:10 *90:12 1.76786 
3 *90:12 *4541:C_N 20.8536 
4 *90:12 *4545:A3 9.3 
5 *90:10 *4550:C 12.7286 
*END

*D_NET *91 0.000961321
*CONN
*I *4559:A1 I *D sky130_fd_sc_hd__a21o_1
*I *4546:A3 I *D sky130_fd_sc_hd__a31o_1
*I *4541:X O *D sky130_fd_sc_hd__or3b_1
*CAP
1 *4559:A1 6.59538e-05
2 *4546:A3 0.000239191
3 *4541:X 0.000305145
4 *4546:A3 *4541:B 9.41642e-05
5 *4546:A3 *4546:A1 1.58163e-05
6 *4546:A3 *4547:A3 8.87062e-05
7 *4546:A3 *4559:A2 5.33005e-05
8 *4559:A1 *4547:A3 9.90431e-05
*RES
1 *4541:X *4546:A3 22.85 
2 *4541:X *4559:A1 19.5464 
*END

*D_NET *92 0.000904972
*CONN
*I *4543:B1 I *D sky130_fd_sc_hd__a31o_1
*I *4542:X O *D sky130_fd_sc_hd__o211a_1
*CAP
1 *4543:B1 0.000246494
2 *4542:X 0.000246494
3 *4543:B1 *168:26 0.000274288
4 *4543:B1 *180:63 0
5 *4543:B1 *230:10 1.02504e-05
6 *4543:B1 *230:14 0.000127446
*RES
1 *4542:X *4543:B1 31.8321 
*END

*D_NET *93 0.00926848
*CONN
*I *4544:B I *D sky130_fd_sc_hd__nand2_1
*I *4543:X O *D sky130_fd_sc_hd__a31o_1
*CAP
1 *4544:B 0.00289675
2 *4543:X 0.00020294
3 *93:10 0.00309969
4 *4544:B *4481:B 5.52302e-05
5 *4544:B *4568:A3 0.000303362
6 *4544:B *4579:A 0.000827199
7 *4544:B *148:48 0.000692063
8 *4544:B *158:86 3.61629e-06
9 *4544:B *158:100 0.000758285
10 *4544:B *178:14 2.24079e-05
11 *93:10 *4459:A 1.02504e-05
12 *93:10 *158:62 0.000128868
13 *93:10 *158:64 0.000267807
14 *93:10 *230:10 0
*RES
1 *4543:X *93:10 23.2821 
2 *93:10 *4544:B 48.7643 
*END

*D_NET *94 0.00107096
*CONN
*I *4547:A2 I *D sky130_fd_sc_hd__a31o_1
*I *4544:Y O *D sky130_fd_sc_hd__nand2_1
*CAP
1 *4547:A2 0.000214739
2 *4544:Y 0.000214739
3 *4547:A2 *4535:B 0.000141046
4 *4547:A2 *4547:A3 0.000285413
5 *4547:A2 *158:100 7.43578e-06
6 *4547:A2 *158:102 3.18676e-05
7 *4547:B1 *4547:A2 4.58194e-05
8 *77:14 *4547:A2 0.000129901
*RES
1 *4544:Y *4547:A2 33.2786 
*END

*D_NET *95 0.000538884
*CONN
*I *4546:B1 I *D sky130_fd_sc_hd__a31o_1
*I *4545:X O *D sky130_fd_sc_hd__a31o_1
*CAP
1 *4546:B1 0.000239554
2 *4545:X 0.000239554
3 *4546:B1 *180:8 4.1331e-06
4 *4546:B1 *180:25 5.56436e-05
*RES
1 *4545:X *4546:B1 31.0107 
*END

*D_NET *96 0.00462518
*CONN
*I *4547:A3 I *D sky130_fd_sc_hd__a31o_1
*I *4546:X O *D sky130_fd_sc_hd__a31o_1
*CAP
1 *4547:A3 0.000670038
2 *4546:X 0.000670038
3 *4547:A3 *4535:B 1.69208e-05
4 *4547:A3 *4541:B 3.29807e-05
5 *4547:A3 *4546:A1 0
6 *4547:A3 *4559:A2 4.87953e-05
7 *4547:A3 *4560:B1 0.00105824
8 *4547:A3 *158:102 9.60939e-05
9 *4547:A3 *158:104 0.00122613
10 *4529:C *4547:A3 0.000332779
11 *4546:A3 *4547:A3 8.87062e-05
12 *4547:A2 *4547:A3 0.000285413
13 *4559:A1 *4547:A3 9.90431e-05
*RES
1 *4546:X *4547:A3 49.3679 
*END

*D_NET *97 0.00214136
*CONN
*I *4548:B1 I *D sky130_fd_sc_hd__a22o_1
*I *4547:X O *D sky130_fd_sc_hd__a31o_1
*CAP
1 *4548:B1 0.000669357
2 *4547:X 0.000669357
3 *4548:B1 *4529:A 0
4 *4548:B1 *4535:B 0.000720691
5 *4548:B1 *4548:B2 5.62995e-05
6 *4529:C *4548:B1 2.56601e-05
7 *4536:A3 *4548:B1 0
8 *4548:A2 *4548:B1 0
9 *4594:A *4548:B1 0
*RES
1 *4547:X *4548:B1 41.6536 
*END

*D_NET *98 0.000861505
*CONN
*I *4555:A2 I *D sky130_fd_sc_hd__a211o_1
*I *4549:X O *D sky130_fd_sc_hd__a22o_1
*CAP
1 *4555:A2 0.000352433
2 *4549:X 0.000352433
3 *4555:A2 *4555:A1 1.02504e-05
4 *4555:A2 *169:22 6.17134e-05
5 *4555:A2 *169:33 1.30905e-05
6 *4555:A2 *222:65 0
7 *4555:A2 *228:14 0
8 *4549:A2 *4555:A2 7.15846e-05
*RES
1 *4549:X *4555:A2 33.4393 
*END

*D_NET *99 0.0110801
*CONN
*I *4554:A I *D sky130_fd_sc_hd__nor2_1
*I *4552:A3 I *D sky130_fd_sc_hd__a31o_1
*I *4563:B I *D sky130_fd_sc_hd__nand2b_1
*I *4550:X O *D sky130_fd_sc_hd__and3_4
*CAP
1 *4554:A 6.11029e-05
2 *4552:A3 0
3 *4563:B 0.000321736
4 *4550:X 0.00108619
5 *99:37 0.00191257
6 *99:12 0.0032594
7 *4554:A *4552:B1 0.00010096
8 *4554:A *4555:B1 0
9 *4554:A *4555:C1 0.000233452
10 *4563:B *4525:A2 0.00010252
11 *4563:B *4525:C1 6.04692e-05
12 *4563:B *4535:B 0.000196506
13 *4563:B *4563:A_N 5.33005e-05
14 *4563:B *4593:D 0.000659487
15 *99:12 *4536:A2 5.58175e-05
16 *99:12 *4550:A 0.000709605
17 *99:12 *180:25 0.000143375
18 *99:12 *227:57 0.000138838
19 *99:12 *227:65 2.47753e-05
20 *99:12 *231:39 8.07397e-06
21 *99:37 *4526:A 0.000102197
22 *99:37 *4535:B 5.97719e-05
23 *99:37 *4555:B1 9.80173e-05
24 *99:37 *4555:C1 2.95641e-05
25 *99:37 *4593:D 0.000126446
26 *99:37 *185:68 0.000290699
27 *99:37 *231:18 0.000561379
28 *99:37 *242:8 1.40415e-05
29 *4531:A2 *99:37 5.33005e-05
30 *4539:A2 *4563:B 1.3142e-05
31 *4552:A2 *4554:A 2.78584e-05
32 *4552:A2 *99:37 0.000178593
33 *77:6 *99:37 8.76257e-05
34 *77:14 *99:37 0.000309266
*RES
1 *4550:X *99:12 29.2643 
2 *99:12 *4563:B 23.5902 
3 *99:12 *99:37 38.7321 
4 *99:37 *4552:A3 9.3 
5 *99:37 *4554:A 11.9071 
*END

*D_NET *100 0.000511289
*CONN
*I *4552:B1 I *D sky130_fd_sc_hd__a31o_1
*I *4551:X O *D sky130_fd_sc_hd__and4_1
*CAP
1 *4552:B1 0.000114498
2 *4551:X 0.000114498
3 *4552:B1 *4554:B 0.000144773
4 *4552:B1 *4555:C1 2.44318e-05
5 *4552:B1 *185:81 1.21289e-05
6 *4554:A *4552:B1 0.00010096
*RES
1 *4551:X *4552:B1 21.6 
*END

*D_NET *101 0.000243314
*CONN
*I *4555:B1 I *D sky130_fd_sc_hd__a211o_1
*I *4552:X O *D sky130_fd_sc_hd__a31o_1
*CAP
1 *4555:B1 4.41223e-05
2 *4552:X 4.41223e-05
3 *4555:B1 *4555:C1 3.93346e-05
4 *4555:B1 *185:68 1.77179e-05
5 *4554:A *4555:B1 0
6 *99:37 *4555:B1 9.80173e-05
*RES
1 *4552:X *4555:B1 19.975 
*END

*D_NET *102 0.00566085
*CONN
*I *4586:A1 I *D sky130_fd_sc_hd__o22a_1
*I *4554:B I *D sky130_fd_sc_hd__nor2_1
*I *4553:X O *D sky130_fd_sc_hd__a311o_1
*CAP
1 *4586:A1 0.00113942
2 *4554:B 0.000524726
3 *4553:X 0
4 *102:4 0.00166415
5 *4554:B *4551:A 0.000449539
6 *4554:B *4551:C 4.88546e-05
7 *4554:B *185:81 0.000110362
8 *4586:A1 *4551:A 0.000137983
9 *4586:A1 *4553:B1 6.42095e-05
10 *4586:A1 *4586:A2 3.51442e-05
11 *4586:A1 *165:10 0.00117963
12 *4586:A1 *165:14 9.01775e-06
13 *4586:A1 *243:10 0.00015304
14 *4552:B1 *4554:B 0.000144773
*RES
1 *4553:X *102:4 9.3 
2 *102:4 *4554:B 18.3893 
3 *102:4 *4586:A1 35.1571 
*END

*D_NET *103 0.000901478
*CONN
*I *4555:C1 I *D sky130_fd_sc_hd__a211o_1
*I *4554:Y O *D sky130_fd_sc_hd__nor2_1
*CAP
1 *4555:C1 8.0741e-05
2 *4554:Y 8.0741e-05
3 *4555:C1 *185:68 0.000238981
4 *4555:C1 *185:81 0.000174232
5 *4552:B1 *4555:C1 2.44318e-05
6 *4554:A *4555:C1 0.000233452
7 *4555:B1 *4555:C1 3.93346e-05
8 *99:37 *4555:C1 2.95641e-05
*RES
1 *4554:Y *4555:C1 22.85 
*END

*D_NET *104 0.00112476
*CONN
*I *4561:B1 I *D sky130_fd_sc_hd__a221o_1
*I *4555:X O *D sky130_fd_sc_hd__a211o_1
*CAP
1 *4561:B1 0.000283095
2 *4555:X 0.000283095
3 *4561:B1 *185:68 0.000352053
4 *4561:B1 *228:22 0.00010326
5 *62:14 *4561:B1 0.00010326
*RES
1 *4555:X *4561:B1 32.35 
*END

*D_NET *105 0.00136875
*CONN
*I *4560:A2 I *D sky130_fd_sc_hd__o211a_1
*I *4556:X O *D sky130_fd_sc_hd__o32a_1
*CAP
1 *4560:A2 0.000364647
2 *4556:X 0.000364647
3 *4560:A2 *4525:A1 0
4 *4560:A2 *4525:C1 2.56694e-05
5 *4560:A2 *4529:A 0.000170661
6 *4560:A2 *4535:B 0
7 *4560:A2 *4560:B1 0.000123295
8 *4560:A2 *4563:A_N 2.04825e-05
9 *4560:A2 *4564:C1 2.59355e-05
10 *4560:A2 *227:65 0.000196282
11 *4529:C *4560:A2 7.71321e-05
*RES
1 *4556:X *4560:A2 35.4571 
*END

*D_NET *106 0.00145522
*CONN
*I *4584:S I *D sky130_fd_sc_hd__mux2_4
*I *4558:C I *D sky130_fd_sc_hd__or3_1
*I *4557:X O *D sky130_fd_sc_hd__and3_4
*CAP
1 *4584:S 0.00017976
2 *4558:C 3.99144e-05
3 *4557:X 0.000257007
4 *106:6 0.000476681
5 *4558:C *4497:A 0.000153054
6 *4558:C *244:116 0.000153054
7 *4584:S *4497:A 3.33174e-05
8 *4584:S *4557:B 4.78014e-06
9 *4584:S *4584:A0 7.32272e-05
10 *4584:S *223:82 1.57414e-05
11 *106:6 *4557:B 6.86792e-05
*RES
1 *4557:X *106:6 13.1214 
2 *106:6 *4558:C 20.2464 
3 *106:6 *4584:S 12.3179 
*END

*D_NET *107 0.00401837
*CONN
*I *4559:A2 I *D sky130_fd_sc_hd__a21o_1
*I *4564:A2 I *D sky130_fd_sc_hd__o211ai_1
*I *4558:X O *D sky130_fd_sc_hd__or3_1
*CAP
1 *4559:A2 0.000179466
2 *4564:A2 0.000655699
3 *4558:X 7.20909e-05
4 *107:10 0.000907256
5 *4559:A2 *4541:A 0.000426254
6 *4559:A2 *4541:B 2.28598e-05
7 *4559:A2 *4631:A 7.90803e-05
8 *4559:A2 *231:69 0.000353988
9 *4564:A2 *176:20 0.00100934
10 *107:10 *4541:A 7.83659e-05
11 *107:10 *4631:A 7.6644e-05
12 *107:10 *228:70 5.52302e-05
13 *4546:A3 *4559:A2 5.33005e-05
14 *4547:A3 *4559:A2 4.87953e-05
*RES
1 *4558:X *107:10 15.3714 
2 *107:10 *4564:A2 23.3714 
3 *107:10 *4559:A2 20.7643 
*END

*D_NET *108 0.00272082
*CONN
*I *4560:B1 I *D sky130_fd_sc_hd__o211a_1
*I *4559:X O *D sky130_fd_sc_hd__a21o_1
*CAP
1 *4560:B1 0.000714694
2 *4559:X 0.000714694
3 *4560:B1 *4536:A2 4.98055e-06
4 *4560:B1 *227:65 9.91086e-05
5 *4547:A3 *4560:B1 0.00105824
6 *4560:A2 *4560:B1 0.000123295
7 *4560:C1 *4560:B1 5.80706e-06
*RES
1 *4559:X *4560:B1 39.225 
*END

*D_NET *109 0.00659166
*CONN
*I *4561:C1 I *D sky130_fd_sc_hd__a221o_1
*I *4560:X O *D sky130_fd_sc_hd__o211a_1
*CAP
1 *4561:C1 0
2 *4560:X 0.00147145
3 *109:18 0.00147145
4 *109:18 *4481:B 1.08359e-05
5 *109:18 *4523:B 0.000372514
6 *109:18 *4523:D 0.000183713
7 *109:18 *4568:A1 4.7024e-05
8 *109:18 *4572:A2 9.25014e-06
9 *109:18 *196:16 0.000753293
10 *109:18 *231:18 8.79776e-05
11 *109:18 *231:39 0.00151348
12 *109:18 *242:23 2.83916e-05
13 *4532:A *109:18 0.000467556
14 *4532:B *109:18 5.52302e-05
15 *4534:A2 *109:18 0.000119477
*RES
1 *4560:X *109:18 49.8536 
2 *109:18 *4561:C1 9.3 
*END

*D_NET *110 0.00200047
*CONN
*I *4562:B1 I *D sky130_fd_sc_hd__a22o_1
*I *4561:X O *D sky130_fd_sc_hd__a221o_1
*CAP
1 *4562:B1 0.000369593
2 *4561:X 0.000369593
3 *4562:B1 *4511:A1 0.000579295
4 *4562:B1 *4562:A1 0.000237502
5 *4562:B1 *4562:B2 0.000103041
6 *4562:B1 *170:10 6.09476e-05
7 *4562:B1 *222:65 0.00015234
8 *4562:B1 *228:14 0.000128154
*RES
1 *4561:X *4562:B1 39.2607 
*END

*D_NET *111 0.000448962
*CONN
*I *4564:B1 I *D sky130_fd_sc_hd__o211ai_1
*I *4563:Y O *D sky130_fd_sc_hd__nand2b_1
*CAP
1 *4564:B1 0.000177219
2 *4563:Y 0.000177219
3 *4564:B1 *4525:A2 0
4 *4564:B1 *4593:D 4.0552e-05
5 *4564:B1 *112:20 9.15186e-06
6 *4564:B1 *190:12 4.48206e-05
*RES
1 *4563:Y *4564:B1 30.6 
*END

*D_NET *112 0.00674023
*CONN
*I *4566:A2 I *D sky130_fd_sc_hd__a31o_1
*I *4564:Y O *D sky130_fd_sc_hd__o211ai_1
*CAP
1 *4566:A2 0.000656287
2 *4564:Y 0.000615194
3 *112:20 0.00127148
4 *4566:A2 *4565:A2 0.000999533
5 *4566:A2 *4566:A3 2.89016e-05
6 *4566:A2 *4573:B1 0.000123939
7 *4566:A2 *150:27 0.00103417
8 *4566:A2 *228:62 0.000536416
9 *4566:A2 *241:27 0.000753287
10 *112:20 *4525:A2 1.90936e-05
11 *112:20 *4563:A_N 0.000115587
12 *112:20 *4564:C1 5.71472e-05
13 *112:20 *130:26 0
14 *112:20 *228:62 0.000515385
15 *4531:A2 *112:20 4.65158e-06
16 *4564:B1 *112:20 9.15186e-06
*RES
1 *4564:Y *112:20 27.7697 
2 *112:20 *4566:A2 33.6571 
*END

*D_NET *113 0.000427535
*CONN
*I *4566:A3 I *D sky130_fd_sc_hd__a31o_1
*I *4565:X O *D sky130_fd_sc_hd__a221o_1
*CAP
1 *4566:A3 0.000131474
2 *4565:X 0.000131474
3 *4566:A3 *4565:A2 3.47255e-05
4 *4566:A3 *4566:B1 0.00010096
5 *4566:A2 *4566:A3 2.89016e-05
*RES
1 *4565:X *4566:A3 21.2071 
*END

*D_NET *114 0.0031637
*CONN
*I *4573:B1 I *D sky130_fd_sc_hd__a22o_1
*I *4566:X O *D sky130_fd_sc_hd__a31o_1
*CAP
1 *4573:B1 0.000914089
2 *4566:X 0.000914089
3 *4573:B1 *4565:A2 0.000870018
4 *4573:B1 *4572:A1 0.000100823
5 *4573:B1 *4636:A 0.000100831
6 *4573:B1 *150:27 0.000139907
7 *4566:A2 *4573:B1 0.000123939
*RES
1 *4566:X *4573:B1 40.975 
*END

*D_NET *115 0.00304315
*CONN
*I *4571:A2_N I *D sky130_fd_sc_hd__a2bb2o_1
*I *4567:X O *D sky130_fd_sc_hd__o32a_1
*CAP
1 *4571:A2_N 0.000331877
2 *4567:X 0.000331877
3 *4571:A2_N *4513:C1 0.000182694
4 *4571:A2_N *148:23 0.000847701
5 *4571:A2_N *160:35 4.27935e-05
6 *4571:A2_N *160:37 0.0011663
7 *65:32 *4571:A2_N 0.000139913
*RES
1 *4567:X *4571:A2_N 33.9393 
*END

*D_NET *116 0.000133696
*CONN
*I *4569:B1 I *D sky130_fd_sc_hd__a2bb2o_1
*I *4568:X O *D sky130_fd_sc_hd__a31o_1
*CAP
1 *4569:B1 1.1624e-05
2 *4568:X 1.1624e-05
3 *4569:B1 *4568:A1 5.52238e-05
4 *4569:B1 *4569:A2_N 5.52238e-05
*RES
1 *4568:X *4569:B1 19.1357 
*END

*D_NET *117 0.000750649
*CONN
*I *4572:A2 I *D sky130_fd_sc_hd__o31a_1
*I *4569:X O *D sky130_fd_sc_hd__a2bb2o_1
*CAP
1 *4572:A2 0.000179082
2 *4569:X 0.000179082
3 *4572:A2 *4481:A 0
4 *4572:A2 *4481:B 0.000102545
5 *4572:A2 *4500:B 0.000101545
6 *4572:A2 *4572:A1 2.27416e-05
7 *4572:A2 *4636:A 0
8 *4572:A2 *186:22 1.00073e-05
9 *4532:A *4572:A2 0.000146395
10 *109:18 *4572:A2 9.25014e-06
*RES
1 *4569:X *4572:A2 32.3143 
*END

*D_NET *118 0.00682983
*CONN
*I *4571:B1 I *D sky130_fd_sc_hd__a2bb2o_1
*I *4570:X O *D sky130_fd_sc_hd__a22o_1
*CAP
1 *4571:B1 0.00109355
2 *4570:X 0.000133232
3 *118:10 0.00122678
4 *4571:B1 *4480:B 0.000309253
5 *4571:B1 *4491:A 0.000228558
6 *4571:B1 *4496:B 0.000438775
7 *4571:B1 *4538:A2 6.22596e-05
8 *4571:B1 *148:23 0.000190848
9 *4571:B1 *160:35 0.00177241
10 *4571:B1 *173:8 0.000271339
11 *4571:B1 *184:10 2.14757e-05
12 *4571:B1 *230:16 0.000287072
13 *4571:B1 *230:22 0.000181831
14 *4571:B1 *230:68 0.000302794
15 *118:10 *4505:A1 5.80706e-06
16 *118:10 *4507:A1 0.000195547
17 *118:10 *147:22 9.25014e-06
18 *118:10 *164:29 3.57844e-05
19 *118:10 *189:14 0
20 *118:10 *199:12 6.32633e-05
21 *4570:B1 *118:10 0
*RES
1 *4570:X *118:10 21.7643 
2 *118:10 *4571:B1 42.6929 
*END

*D_NET *119 0.001455
*CONN
*I *4572:A3 I *D sky130_fd_sc_hd__o31a_1
*I *4571:X O *D sky130_fd_sc_hd__a2bb2o_1
*CAP
1 *4572:A3 0.000322924
2 *4571:X 0.000322924
3 *4572:A3 *4500:B 0
4 *4572:A3 *4519:A1 9.32966e-05
5 *4572:A3 *4572:B1 4.46186e-06
6 *4572:A3 *241:27 8.41829e-05
7 *4521:A3 *4572:A3 0.000127446
8 *4532:A *4572:A3 0.000499762
*RES
1 *4571:X *4572:A3 36.5286 
*END

*D_NET *120 0.000102572
*CONN
*I *4573:B2 I *D sky130_fd_sc_hd__a22o_1
*I *4572:X O *D sky130_fd_sc_hd__o31a_1
*CAP
1 *4573:B2 2.3671e-05
2 *4572:X 2.3671e-05
3 *4573:B2 *4572:A1 5.52302e-05
*RES
1 *4572:X *4573:B2 19.1357 
*END

*D_NET *121 0.000965544
*CONN
*I *4575:B I *D sky130_fd_sc_hd__nand2_1
*I *4585:A1 I *D sky130_fd_sc_hd__mux2_1
*I *4574:Y O *D sky130_fd_sc_hd__nor2_1
*CAP
1 *4575:B 0.000136373
2 *4585:A1 0.000128266
3 *4574:Y 8.60542e-05
4 *121:12 0.000350693
5 *4575:B *130:34 0
6 *4585:A1 *130:34 2.89016e-05
7 *121:12 *4575:A 5.80217e-05
8 *121:12 *4581:A3 0
9 *121:12 *168:12 0.000177234
*RES
1 *4574:Y *121:12 21.0857 
2 *121:12 *4585:A1 11.0857 
3 *121:12 *4575:B 11.4964 
*END

*D_NET *122 0.00106171
*CONN
*I *4581:A2 I *D sky130_fd_sc_hd__a32o_1
*I *4575:Y O *D sky130_fd_sc_hd__nand2_1
*CAP
1 *4581:A2 0.000211184
2 *4575:Y 0.000211184
3 *4581:A2 *4581:A1 0.000150625
4 *4581:A2 *4581:A3 0.000488722
5 *4581:A2 *4581:B2 0
6 *4581:A2 *168:12 0
*RES
1 *4575:Y *4581:A2 33.7964 
*END

*D_NET *123 0.00205401
*CONN
*I *4581:A3 I *D sky130_fd_sc_hd__a32o_1
*I *4576:X O *D sky130_fd_sc_hd__a31o_1
*CAP
1 *4581:A3 0.000348038
2 *4576:X 0.000348038
3 *4581:A3 *4575:A 8.15939e-05
4 *4581:A3 *4576:A2 7.61932e-05
5 *4581:A3 *4581:B2 0
6 *4581:A3 *154:25 0.000703778
7 *4581:A3 *168:12 0
8 *4581:A3 *234:12 4.0342e-06
9 *4581:A3 *234:18 3.61629e-06
10 *4581:A2 *4581:A3 0.000488722
11 *121:12 *4581:A3 0
*RES
1 *4576:X *4581:A3 38.2964 
*END

*D_NET *124 0.00144572
*CONN
*I *4587:A3 I *D sky130_fd_sc_hd__a31o_1
*I *4578:A2 I *D sky130_fd_sc_hd__a21o_1
*I *4577:X O *D sky130_fd_sc_hd__or2_1
*CAP
1 *4587:A3 6.6897e-05
2 *4578:A2 0
3 *4577:X 0.000351064
4 *124:10 0.000417961
5 *4587:A3 *4580:A2 3.57844e-05
6 *4587:A3 *4583:A1 0.00017309
7 *4587:A3 *4583:S 0.000127439
8 *4587:A3 *243:16 0
9 *124:10 *4580:A1 8.6742e-05
10 *124:10 *4580:A2 9.4736e-05
11 *124:10 *4585:A0 3.5707e-05
12 *124:10 *130:34 5.62995e-05
13 *124:10 *243:16 0
*RES
1 *4577:X *124:10 21.2464 
2 *124:10 *4578:A2 13.8 
3 *124:10 *4587:A3 16.3536 
*END

*D_NET *125 0.000236427
*CONN
*I *4581:B1 I *D sky130_fd_sc_hd__a32o_1
*I *4578:X O *D sky130_fd_sc_hd__a21o_1
*CAP
1 *4581:B1 2.6263e-05
2 *4578:X 2.6263e-05
3 *4581:B1 *162:8 6.39773e-05
4 *4581:B1 *227:12 0.000119924
*RES
1 *4578:X *4581:B1 19.7518 
*END

*D_NET *126 0.00194962
*CONN
*I *4586:A2 I *D sky130_fd_sc_hd__o22a_1
*I *4580:A2 I *D sky130_fd_sc_hd__a21oi_1
*I *4579:X O *D sky130_fd_sc_hd__and4_1
*CAP
1 *4586:A2 0.000121945
2 *4580:A2 0.000461445
3 *4579:X 0.00058339
4 *4580:A2 *4580:A1 1.02504e-05
5 *4580:A2 *4583:S 7.6644e-05
6 *4580:A2 *4587:A1 3.69047e-06
7 *4580:A2 *4587:A2 0.000142844
8 *4580:A2 *155:65 8.31218e-05
9 *4580:A2 *155:74 0.000145753
10 *4586:A2 *4586:B1 4.25716e-05
11 *4586:A2 *4588:B1 5.71472e-05
12 *4586:A2 *243:10 1.81805e-05
13 *4586:A2 *243:16 3.69697e-05
14 *4586:A1 *4586:A2 3.51442e-05
15 *4587:A3 *4580:A2 3.57844e-05
16 *124:10 *4580:A2 9.4736e-05
*RES
1 *4579:X *4580:A2 35.9036 
2 *4579:X *4586:A2 30.0821 
*END

*D_NET *127 0.000507283
*CONN
*I *4581:B2 I *D sky130_fd_sc_hd__a32o_1
*I *4580:Y O *D sky130_fd_sc_hd__a21oi_1
*CAP
1 *4581:B2 0.000140742
2 *4580:Y 0.000140742
3 *4581:B2 *4581:A1 7.02532e-05
4 *4581:B2 *155:65 8.89289e-05
5 *4581:B2 *168:12 5.41794e-05
6 *4581:B2 *168:18 1.24368e-05
7 *4581:A2 *4581:B2 0
8 *4581:A3 *4581:B2 0
*RES
1 *4580:Y *4581:B2 30.9929 
*END

*D_NET *128 0.00318995
*CONN
*I *4583:S I *D sky130_fd_sc_hd__mux2_1
*I *4581:X O *D sky130_fd_sc_hd__a32o_1
*CAP
1 *4583:S 0.000871553
2 *4581:X 0.000871553
3 *4583:S *4583:A1 0.000477181
4 *4583:S *155:74 2.72545e-05
5 *4583:S *155:85 0.000208069
6 *4583:S *164:16 0.000530254
7 *4583:S *219:14 0
8 *4580:A2 *4583:S 7.6644e-05
9 *4587:A3 *4583:S 0.000127439
*RES
1 *4581:X *4583:S 46.7429 
*END

*D_NET *129 0.00220561
*CONN
*I *4583:A0 I *D sky130_fd_sc_hd__mux2_1
*I *4582:Y O *D sky130_fd_sc_hd__nor2_1
*CAP
1 *4583:A0 0.00105572
2 *4582:Y 0.00105572
3 *4583:A0 *4582:B 1.58163e-05
4 *4583:A0 *4583:A1 7.83659e-05
5 *4583:A0 *219:14 0
*RES
1 *4582:Y *4583:A0 40.2607 
*END

*D_NET *130 0.0132603
*CONN
*I *4585:S I *D sky130_fd_sc_hd__mux2_1
*I *4584:X O *D sky130_fd_sc_hd__mux2_4
*CAP
1 *4585:S 0
2 *4584:X 0.0019815
3 *130:34 0.00215505
4 *130:26 0.00413655
5 *130:26 *4517:A1 8.89085e-05
6 *130:26 *4517:A2 5.52302e-05
7 *130:26 *4631:A 0
8 *130:26 *160:68 1.94879e-05
9 *130:26 *228:62 0
10 *130:34 *4516:B 3.55552e-05
11 *130:34 *4517:A1 0.000863087
12 *130:34 *4577:A 0.000435938
13 *130:34 *4577:B 7.13624e-05
14 *130:34 *4586:B1 9.61553e-05
15 *130:34 *4633:A 0.000178847
16 *130:34 *4638:A 9.90431e-05
17 *130:34 *183:12 2.6269e-05
18 *130:34 *183:18 0.00186121
19 *4513:B1 *130:26 0.000201965
20 *4517:B1 *130:26 1.97695e-05
21 *4517:B1 *130:34 6.71854e-05
22 *4518:B1 *130:34 4.47762e-05
23 *4521:A1 *130:26 0.000449211
24 *4521:A2 *130:26 0.0001827
25 *4521:A3 *130:26 2.89114e-05
26 *4532:A *130:26 5.52302e-05
27 *4539:A2 *130:26 2.11419e-05
28 *4575:B *130:34 0
29 *4585:A1 *130:34 2.89016e-05
30 *112:20 *130:26 0
31 *124:10 *130:34 5.62995e-05
*RES
1 *4584:X *130:26 44.887 
2 *130:26 *130:34 47.9286 
3 *130:34 *4585:S 9.3 
*END

*D_NET *131 0.00267152
*CONN
*I *4586:B1 I *D sky130_fd_sc_hd__o22a_1
*I *4585:X O *D sky130_fd_sc_hd__mux2_1
*CAP
1 *4586:B1 0.000860218
2 *4585:X 0.000860218
3 *4586:B1 *4482:A_N 0
4 *4586:B1 *4577:A 0.00010326
5 *4586:B1 *4579:B 0.000121573
6 *4586:B1 *171:17 0
7 *4586:B1 *183:12 8.27532e-05
8 *4586:B1 *183:18 0.000230482
9 *4586:B1 *243:16 0
10 *4586:B1 *243:46 0.000274288
11 *4586:A2 *4586:B1 4.25716e-05
12 *130:34 *4586:B1 9.61553e-05
*RES
1 *4585:X *4586:B1 44.8143 
*END

*D_NET *132 0.000862166
*CONN
*I *4590:A2 I *D sky130_fd_sc_hd__a22o_1
*I *4586:X O *D sky130_fd_sc_hd__o22a_1
*CAP
1 *4590:A2 0.000135398
2 *4586:X 0.000135398
3 *4590:A2 *4590:A1 0.00014285
4 *4590:A2 *154:34 0.00044852
*RES
1 *4586:X *4590:A2 22.8321 
*END

*D_NET *133 0.00186937
*CONN
*I *4588:B1 I *D sky130_fd_sc_hd__a31o_1
*I *4587:X O *D sky130_fd_sc_hd__a31o_1
*CAP
1 *4588:B1 0.000271406
2 *4587:X 0.000271406
3 *4588:B1 *4579:A 0.000305168
4 *4588:B1 *4579:B 5.33005e-05
5 *4588:B1 *4579:C 0.000460481
6 *4588:B1 *4587:A2 0.000360894
7 *4588:B1 *171:34 8.95673e-05
8 *4586:A2 *4588:B1 5.71472e-05
*RES
1 *4587:X *4588:B1 27.3857 
*END

*D_NET *134 0.000175725
*CONN
*I *4590:B1 I *D sky130_fd_sc_hd__a22o_1
*I *4588:X O *D sky130_fd_sc_hd__a31o_1
*CAP
1 *4590:B1 6.11682e-05
2 *4588:X 6.11682e-05
3 *4590:B1 *4590:A1 0
4 *4590:B1 *4590:B2 5.33882e-05
*RES
1 *4588:X *4590:B1 28.9393 
*END

*D_NET *135 0.000832776
*CONN
*I *4590:B2 I *D sky130_fd_sc_hd__a22o_1
*I *4589:X O *D sky130_fd_sc_hd__o31a_1
*CAP
1 *4590:B2 0.000208596
2 *4589:X 0.000208596
3 *4590:B2 *4579:A 0.000226507
4 *4590:B2 *171:17 0
5 *4590:B2 *238:10 9.25014e-06
6 *4590:B2 *238:16 0.000126439
7 *4590:B1 *4590:B2 5.33882e-05
*RES
1 *4589:X *4590:B2 31.4214 
*END

*D_NET *136 0.00299477
*CONN
*I *4592:S I *D sky130_fd_sc_hd__mux2_1
*I *4590:X O *D sky130_fd_sc_hd__a22o_1
*CAP
1 *4592:S 0.000748958
2 *4590:X 0.000748958
3 *4592:S *4592:A0 0.000178922
4 *4592:S *4592:A1 2.89114e-05
5 *4592:S *4663:A 0
6 *4592:S *154:34 0.000154027
7 *4592:S *171:17 0
8 *4592:S *216:6 5.52302e-05
9 *4592:S *238:10 0.000384988
10 *4592:S *238:58 0.000694776
*RES
1 *4590:X *4592:S 45.225 
*END

*D_NET *137 0.00092117
*CONN
*I *4592:A1 I *D sky130_fd_sc_hd__mux2_1
*I *4591:Y O *D sky130_fd_sc_hd__a21oi_1
*CAP
1 *4592:A1 0.000300017
2 *4591:Y 0.000300017
3 *4592:A1 *4592:A0 5.52302e-05
4 *4592:A1 *4666:A 0
5 *4592:A1 *147:10 0
6 *4592:A1 *166:21 0
7 *4592:A1 *216:6 8.43535e-06
8 *4592:A1 *238:58 0.000228558
9 *4592:S *4592:A1 2.89114e-05
*RES
1 *4591:Y *4592:A1 33.1536 
*END

*D_NET *138 0.000258084
*CONN
*I *4594:B I *D sky130_fd_sc_hd__nor2_1
*I *4593:X O *D sky130_fd_sc_hd__or4_1
*CAP
1 *4594:B 6.16756e-05
2 *4593:X 6.16756e-05
3 *4594:B *4593:A 3.37729e-05
4 *4594:B *221:6 0.00010096
*RES
1 *4593:X *4594:B 20.2786 
*END

*D_NET *139 0.00183238
*CONN
*I *4598:A I *D sky130_fd_sc_hd__nor2_1
*I *4600:B I *D sky130_fd_sc_hd__nor2_1
*I *4599:B I *D sky130_fd_sc_hd__and2_4
*I *4596:X O *D sky130_fd_sc_hd__and3_4
*CAP
1 *4598:A 9.90666e-05
2 *4600:B 0
3 *4599:B 8.62022e-05
4 *4596:X 9.51546e-05
5 *139:14 0.000292246
6 *139:8 0.000400265
7 *4598:A *4596:C 0
8 *4598:A *4620:CLK 1.19402e-05
9 *4598:A *213:23 3.75052e-05
10 *4599:B *4620:CLK 9.45905e-05
11 *4599:B *4627:A 0.00022217
12 *139:8 *205:16 9.68931e-05
13 *139:14 *4596:C 0
14 *139:14 *4600:A 9.71197e-05
15 *139:14 *4620:CLK 0.000154464
16 *139:14 *4627:A 0.000144764
*RES
1 *4596:X *139:8 15.5679 
2 *139:8 *139:14 10.7321 
3 *139:14 *4599:B 21.1571 
4 *139:14 *4600:B 9.3 
5 *139:8 *4598:A 15.7464 
*END

*D_NET *140 0.000358523
*CONN
*I *4598:B I *D sky130_fd_sc_hd__nor2_1
*I *4597:Y O *D sky130_fd_sc_hd__a21oi_1
*CAP
1 *4598:B 0.000117102
2 *4597:Y 0.000117102
3 *4598:B *4597:B1 0.000103181
4 *4619:D *4598:B 2.11368e-05
*RES
1 *4597:Y *4598:B 21.225 
*END

*D_NET *141 0.00300059
*CONN
*I *4601:A I *D sky130_fd_sc_hd__nor2_1
*I *4602:B I *D sky130_fd_sc_hd__xor2_1
*I *4604:A2 I *D sky130_fd_sc_hd__a21oi_1
*I *4603:C I *D sky130_fd_sc_hd__and3_4
*I *4599:X O *D sky130_fd_sc_hd__and2_4
*CAP
1 *4601:A 0.000184133
2 *4602:B 0
3 *4604:A2 6.17105e-05
4 *4603:C 0.000171675
5 *4599:X 0
6 *141:10 0.00049075
7 *141:8 0.000896815
8 *141:4 0.000823583
9 *4601:A *206:16 2.14658e-05
10 *4601:A *206:20 0.000145767
11 *4603:C *4603:A 0
12 *4603:C *4604:B1 0
13 *4603:C *4605:A 3.30352e-05
14 *4603:C *143:12 4.95001e-05
15 *4603:C *208:12 5.62995e-05
16 *141:8 *4626:A 0
17 *141:8 *4627:A 0
18 *141:10 *4603:A 0
19 *4621:D *141:8 6.17227e-05
20 *4621:D *141:10 4.1331e-06
*RES
1 *4599:X *141:4 9.3 
2 *141:4 *141:8 16.4643 
3 *141:8 *141:10 4.67857 
4 *141:10 *4603:C 17.6036 
5 *141:10 *4604:A2 14.7464 
6 *141:8 *4602:B 13.8 
7 *141:4 *4601:A 12.7286 
*END

*D_NET *142 0.000662545
*CONN
*I *4601:B I *D sky130_fd_sc_hd__nor2_1
*I *4600:Y O *D sky130_fd_sc_hd__nor2_1
*CAP
1 *4601:B 0.000208861
2 *4600:Y 0.000208861
3 *4601:B *4600:A 9.47028e-05
4 *4601:B *4620:CLK 7.50601e-05
5 *4625:A *4601:B 7.50601e-05
*RES
1 *4600:Y *4601:B 31.3143 
*END

*D_NET *143 0.00208641
*CONN
*I *4605:A I *D sky130_fd_sc_hd__nor2_1
*I *4607:B I *D sky130_fd_sc_hd__or2_1
*I *4606:B I *D sky130_fd_sc_hd__nand2_1
*I *4603:X O *D sky130_fd_sc_hd__and3_4
*CAP
1 *4605:A 0.000260511
2 *4607:B 0
3 *4606:B 0.000113529
4 *4603:X 0
5 *143:12 0.000620814
6 *143:4 0.000767796
7 *4605:A *4603:A 5.33005e-05
8 *4605:A *208:8 4.46231e-06
9 *4605:A *208:10 5.19842e-06
10 *4605:A *208:12 5.19842e-06
11 *4606:B *4607:A 0.000144773
12 *4606:B *4608:B 1.92789e-05
13 *143:12 *4469:B1 0
14 *143:12 *4604:B1 0
15 *143:12 *208:12 9.01258e-06
16 *4603:C *4605:A 3.30352e-05
17 *4603:C *143:12 4.95001e-05
*RES
1 *4603:X *143:4 9.3 
2 *143:4 *143:12 17.6607 
3 *143:12 *4606:B 11.9071 
4 *143:12 *4607:B 9.3 
5 *143:4 *4605:A 12.925 
*END

*D_NET *144 0.000494991
*CONN
*I *4605:B I *D sky130_fd_sc_hd__nor2_1
*I *4604:Y O *D sky130_fd_sc_hd__a21oi_1
*CAP
1 *4605:B 0.00021558
2 *4604:Y 0.00021558
3 *4605:B *4604:B1 4.94268e-05
4 *4605:B *207:16 1.44042e-05
5 *4605:B *212:10 0
6 *4605:B *212:14 0
*RES
1 *4604:Y *4605:B 30.9036 
*END

*D_NET *145 0.000770093
*CONN
*I *4609:B I *D sky130_fd_sc_hd__xnor2_1
*I *4608:A I *D sky130_fd_sc_hd__and2_1
*I *4606:Y O *D sky130_fd_sc_hd__nand2_1
*CAP
1 *4609:B 2.85507e-05
2 *4608:A 0
3 *4606:Y 0.000155022
4 *145:12 0.000183573
5 *4609:B *4623:CLK 0.00010096
6 *145:12 *4608:B 4.25809e-05
7 *145:12 *4623:CLK 0.000227539
8 *4623:D *145:12 3.18676e-05
*RES
1 *4606:Y *145:12 22.1214 
2 *145:12 *4608:A 9.3 
3 *145:12 *4609:B 10.2464 
*END

*D_NET *146 0.000356288
*CONN
*I *4608:B I *D sky130_fd_sc_hd__and2_1
*I *4607:X O *D sky130_fd_sc_hd__or2_1
*CAP
1 *4608:B 0.000147214
2 *4607:X 0.000147214
3 *4606:B *4608:B 1.92789e-05
4 *145:12 *4608:B 4.25809e-05
*RES
1 *4607:X *4608:B 30.0821 
*END

*D_NET *147 0.0157641
*CONN
*I *4551:A I *D sky130_fd_sc_hd__and4_1
*I *4459:A I *D sky130_fd_sc_hd__or2_1
*I *4638:A I *D sky130_fd_sc_hd__clkbuf_2
*I *4490:B I *D sky130_fd_sc_hd__and2b_4
*I *4496:A I *D sky130_fd_sc_hd__nand2_2
*I *4454:X O *D sky130_fd_sc_hd__mux2_8
*CAP
1 *4551:A 0.000499465
2 *4459:A 0.000869126
3 *4638:A 1.64323e-05
4 *4490:B 0.000284126
5 *4496:A 0
6 *4454:X 0.00162509
7 *147:22 0.000458724
8 *147:14 0.000431053
9 *147:12 0.00140205
10 *147:10 0.00241746
11 *4459:A *4493:A 5.71472e-05
12 *4459:A *4493:B 9.71197e-05
13 *4459:A *4565:B2 0
14 *4459:A *158:64 3.34783e-05
15 *4459:A *178:42 0.000218246
16 *4459:A *186:18 7.61932e-05
17 *4459:A *227:26 0.00108942
18 *4459:A *230:10 2.05938e-05
19 *4459:A *230:14 2.8266e-06
20 *4490:B *4506:B 0.000115206
21 *4490:B *4574:B 0
22 *4490:B *189:14 5.33005e-05
23 *4490:B *189:34 0.000797299
24 *4490:B *199:12 4.27338e-05
25 *4490:B *199:56 0.000305175
26 *4490:B *230:68 1.02821e-05
27 *4490:B *230:81 0.000526414
28 *4551:A *4551:C 0.000248788
29 *4551:A *4553:A3 4.36196e-05
30 *4551:A *4591:A2 0.000100823
31 *4551:A *154:34 0.000114655
32 *4551:A *165:14 8.25843e-06
33 *4551:A *231:12 0.000264428
34 *4551:A *236:70 9.91086e-05
35 *4638:A *183:18 9.90431e-05
36 *147:10 *4473:A 0.000207948
37 *147:10 *4582:A 0
38 *147:10 *160:22 3.4323e-05
39 *147:10 *166:21 0
40 *147:10 *215:8 0.000396892
41 *147:10 *238:10 0.000384988
42 *147:10 *238:58 0.000546594
43 *147:12 *4588:A3 0.000143128
44 *147:12 *160:22 6.38485e-05
45 *147:12 *164:29 6.44449e-05
46 *147:12 *238:10 6.98302e-05
47 *147:12 *238:16 0.000221163
48 *147:14 *4507:A1 0.000100735
49 *147:14 *4588:A3 5.10822e-05
50 *147:14 *4590:A1 0
51 *147:14 *164:29 8.13657e-05
52 *147:22 *4496:B 5.71472e-05
53 *147:22 *4507:A1 9.55563e-05
54 *147:22 *4590:A1 0
55 *147:22 *189:34 5.7661e-06
56 *147:22 *199:12 2.77289e-05
57 *147:22 *230:68 7.77751e-05
58 *147:22 *244:10 0
59 *4554:B *4551:A 0.000449539
60 *4586:A1 *4551:A 0.000137983
61 *4592:A1 *147:10 0
62 *93:10 *4459:A 1.02504e-05
63 *118:10 *147:22 9.25014e-06
64 *130:34 *4638:A 9.90431e-05
*RES
1 *4454:X *147:10 46.0143 
2 *147:10 *147:12 7.41071 
3 *147:12 *147:14 5.58929 
4 *147:14 *147:22 8.83929 
5 *147:22 *4496:A 9.3 
6 *147:22 *4490:B 21.0857 
7 *147:14 *4638:A 14.7464 
8 *147:12 *4459:A 38.0679 
9 *147:10 *4551:A 34.2464 
*END

*D_NET *148 0.0206241
*CONN
*I *4513:A1 I *D sky130_fd_sc_hd__a311o_1
*I *4512:A1 I *D sky130_fd_sc_hd__a21oi_1
*I *4481:A I *D sky130_fd_sc_hd__nand2_1
*I *4579:A I *D sky130_fd_sc_hd__and4_1
*I *4565:A1 I *D sky130_fd_sc_hd__a221o_1
*I *4495:A I *D sky130_fd_sc_hd__nor2_1
*I *4567:A1 I *D sky130_fd_sc_hd__o32a_1
*I *4455:Y O *D sky130_fd_sc_hd__inv_4
*CAP
1 *4513:A1 0.00025696
2 *4512:A1 0
3 *4481:A 0.000387801
4 *4579:A 0.00111327
5 *4565:A1 0.000200512
6 *4495:A 0.000361661
7 *4567:A1 2.23854e-05
8 *4455:Y 0.000286553
9 *148:101 0.000648453
10 *148:48 0.00161195
11 *148:42 0.00103417
12 *148:23 0.00127466
13 *148:12 0.000821688
14 *148:8 0.000912549
15 *4481:A *4481:B 3.2534e-05
16 *4481:A *4568:A2 0.000115467
17 *4481:A *4569:A2_N 3.97677e-05
18 *4481:A *4569:B2 0.000260574
19 *4481:A *4636:A 0.000123288
20 *4481:A *179:99 0.00012401
21 *4495:A *4517:A2 7.83587e-05
22 *4495:A *4571:B2 4.15914e-05
23 *4495:A *179:59 0.000312215
24 *4495:A *179:63 0.000290986
25 *4495:A *239:14 0.000101085
26 *4513:A1 *4513:A3 1.58163e-05
27 *4513:A1 *4513:C1 6.13724e-05
28 *4565:A1 *4509:A1 0
29 *4565:A1 *169:22 0
30 *4565:A1 *178:14 0.00037976
31 *4579:A *4579:C 4.40211e-05
32 *4579:A *4589:A1 0.000232148
33 *4579:A *158:86 0.000213632
34 *4579:A *171:34 0.000230482
35 *4579:A *238:16 9.40041e-05
36 *4579:A *238:24 6.77968e-05
37 *148:8 *4567:B1 0
38 *148:8 *223:25 0.000129746
39 *148:8 *226:10 0
40 *148:8 *244:88 2.56601e-05
41 *148:12 *4567:A2 2.59355e-05
42 *148:12 *4567:B1 5.52238e-05
43 *148:12 *4567:B2 1.21258e-05
44 *148:23 *4538:A2 0.00177933
45 *148:23 *4567:A2 2.59355e-05
46 *148:23 *160:35 5.38388e-05
47 *148:42 *4568:A2 0.000751746
48 *148:42 *179:63 0.000632135
49 *148:42 *179:78 0.0003042
50 *148:42 *179:99 4.56437e-05
51 *148:42 *230:22 0.000146474
52 *148:42 *239:14 2.87566e-05
53 *148:48 *158:86 1.21258e-05
54 *148:48 *178:14 0.00125649
55 *148:101 *4530:C1 0
56 *148:101 *4567:B1 0
57 *148:101 *4567:B2 7.10822e-05
58 *4513:B1 *4513:A1 7.18124e-06
59 *4513:B1 *148:101 3.69047e-06
60 *4544:B *4579:A 0.000827199
61 *4544:B *148:48 0.000692063
62 *4565:B1 *4565:A1 0.000148189
63 *4571:A2_N *148:23 0.000847701
64 *4571:B1 *148:23 0.000190848
65 *4572:A2 *4481:A 0
66 *4588:B1 *4579:A 0.000305168
67 *4590:B2 *4579:A 0.000226507
68 *65:32 *148:12 1.21258e-05
69 *65:32 *148:23 8.43535e-06
70 *66:23 *4565:A1 0.000207047
*RES
1 *4455:Y *148:8 19.9964 
2 *148:8 *148:12 7.91071 
3 *148:12 *4567:A1 9.72857 
4 *148:12 *148:23 25.1607 
5 *148:23 *4495:A 30.6036 
6 *148:23 *148:42 12.875 
7 *148:42 *148:48 17.375 
8 *148:48 *4565:A1 24.2464 
9 *148:48 *4579:A 35.4786 
10 *148:42 *4481:A 29.4964 
11 *148:8 *148:101 10.9643 
12 *148:101 *4512:A1 9.3 
13 *148:101 *4513:A1 12.7464 
*END

*D_NET *149 0.000617009
*CONN
*I *4637:A I *D sky130_fd_sc_hd__buf_1
*I *4456:X O *D sky130_fd_sc_hd__mux2_1
*CAP
1 *4637:A 0.000254967
2 *4456:X 0.000254967
3 *4637:A *4478:A0 9.25014e-06
4 *4637:A *246:12 5.71472e-05
5 *4637:A *256:12 4.06782e-05
*RES
1 *4456:X *4637:A 32.2429 
*END

*D_NET *150 0.00506285
*CONN
*I *4485:A I *D sky130_fd_sc_hd__nand2_2
*I *4573:A1 I *D sky130_fd_sc_hd__a22o_1
*I *4525:A1 I *D sky130_fd_sc_hd__a211o_1
*I *4457:Y O *D sky130_fd_sc_hd__clkinv_1
*CAP
1 *4485:A 7.3067e-05
2 *4573:A1 3.07063e-05
3 *4525:A1 0.000302805
4 *4457:Y 0
5 *150:27 0.00108106
6 *150:4 0.0012801
7 *4485:A *4485:B 1.02504e-05
8 *4485:A *4573:A2 0.000225307
9 *4485:A *4636:A 0.000124479
10 *4485:A *196:33 1.08359e-05
11 *4525:A1 *4525:C1 3.25078e-05
12 *4525:A1 *4535:B 0.000122814
13 *4525:A1 *4556:A3 8.25843e-06
14 *4525:A1 *4556:B1 0.000136951
15 *4525:A1 *4556:B2 9.25014e-06
16 *4525:A1 *223:14 5.94896e-06
17 *4525:A1 *228:62 2.51343e-06
18 *4573:A1 *4573:A2 5.52238e-05
19 *4573:A1 *186:22 9.71197e-05
20 *150:27 *4457:A 9.3111e-05
21 *150:27 *4636:A 5.86416e-05
22 *150:27 *196:33 0.000109945
23 *150:27 *228:62 5.74499e-06
24 *150:27 *241:27 1.21289e-05
25 *4560:A2 *4525:A1 0
26 *4566:A2 *150:27 0.00103417
27 *4573:B1 *150:27 0.000139907
*RES
1 *4457:Y *150:4 9.3 
2 *150:4 *4525:A1 22.5321 
3 *150:4 *150:27 21.6071 
4 *150:27 *4573:A1 14.7464 
5 *150:27 *4485:A 16.9607 
*END

*D_NET *151 0.0129863
*CONN
*I *4556:A1 I *D sky130_fd_sc_hd__o32a_1
*I *4494:B2 I *D sky130_fd_sc_hd__o221a_1
*I *4518:A1 I *D sky130_fd_sc_hd__a211o_1
*I *4558:A I *D sky130_fd_sc_hd__or3_1
*I *4458:Y O *D sky130_fd_sc_hd__nor2_2
*CAP
1 *4556:A1 0.000475967
2 *4494:B2 0.000263438
3 *4518:A1 2.30153e-05
4 *4558:A 0.000280845
5 *4458:Y 0.00163433
6 *151:42 0.00110757
7 *151:32 0.00265057
8 *4494:B2 *4494:A1 0.000319316
9 *4494:B2 *4495:B 7.90536e-05
10 *4494:B2 *175:48 6.97409e-05
11 *4518:A1 *4519:A2 0
12 *4518:A1 *179:42 3.57366e-05
13 *4556:A1 *4512:A2 0.000124655
14 *4556:A1 *4525:C1 0
15 *4556:A1 *4530:C1 0.000545985
16 *4556:A1 *4556:A2 1.24469e-05
17 *4556:A1 *179:12 7.50697e-05
18 *4556:A1 *223:14 0.000325267
19 *4556:A1 *224:20 0.000177867
20 *4556:A1 *227:65 8.6229e-06
21 *4556:A1 *228:70 0.000140608
22 *4556:A1 *244:35 1.50087e-05
23 *4558:A *4497:A 0.000175519
24 *4558:A *4541:A 8.89385e-05
25 *4558:A *223:82 0.00048287
26 *4558:A *224:40 4.13573e-05
27 *4558:A *237:14 6.5185e-05
28 *4558:A *244:88 1.40306e-05
29 *4558:A *244:94 5.982e-05
30 *4558:A *244:105 9.3616e-05
31 *151:32 *4486:B 5.41609e-05
32 *151:32 *4584:A0 9.99989e-05
33 *151:32 *179:6 0.000108535
34 *151:32 *224:40 9.6732e-05
35 *151:32 *244:88 9.71197e-05
36 *151:42 *175:48 7.49387e-06
37 *151:42 *179:6 9.90367e-05
38 *151:42 *179:42 0.00165852
39 *4513:B1 *4556:A1 1.28585e-05
40 *4518:B1 *4494:B2 0.000515441
41 *4518:B1 *4518:A1 1.97695e-05
42 *4520:B *151:42 0.00010096
43 *65:8 *4556:A1 0.000148196
44 *65:19 *4556:A1 0.000581024
*RES
1 *4458:Y *4558:A 37.3679 
2 *4458:Y *151:32 36.2821 
3 *151:32 *151:42 18.375 
4 *151:42 *4518:A1 10.0321 
5 *151:42 *4494:B2 26.1214 
6 *151:32 *4556:A1 35.8893 
*END

*D_NET *152 0.000453491
*CONN
*I *4630:A I *D sky130_fd_sc_hd__clkbuf_1
*I *4565:B2 I *D sky130_fd_sc_hd__a221o_1
*I *4459:X O *D sky130_fd_sc_hd__or2_1
*CAP
1 *4630:A 0
2 *4565:B2 6.03171e-05
3 *4459:X 3.27417e-05
4 *152:6 9.30588e-05
5 *4565:B2 *4565:C1 2.08464e-05
6 *4565:B2 *4566:B1 1.6649e-05
7 *4565:B2 *178:42 4.43256e-05
8 *4565:B2 *227:26 1.55885e-05
9 *152:6 *178:42 5.04705e-05
10 *152:6 *186:18 9.80173e-05
11 *152:6 *227:26 2.14757e-05
12 *4459:A *4565:B2 0
*RES
1 *4459:X *152:6 10.6571 
2 *152:6 *4565:B2 11.233 
3 *152:6 *4630:A 9.3 
*END

*D_NET *153 0.000783625
*CONN
*I *4461:B1 I *D sky130_fd_sc_hd__o21ai_4
*I *4460:X O *D sky130_fd_sc_hd__or2_4
*CAP
1 *4461:B1 0.000321916
2 *4460:X 0.000321916
3 *4461:B1 *255:12 0.000139793
*RES
1 *4460:X *4461:B1 34.0464 
*END

*D_NET *154 0.0143589
*CONN
*I *4566:A1 I *D sky130_fd_sc_hd__a31o_1
*I *4509:A1 I *D sky130_fd_sc_hd__a21o_1
*I *4466:A I *D sky130_fd_sc_hd__nor2_1
*I *4586:B2 I *D sky130_fd_sc_hd__o22a_1
*I *4576:B1 I *D sky130_fd_sc_hd__a31o_1
*I *4461:Y O *D sky130_fd_sc_hd__o21ai_4
*CAP
1 *4566:A1 0.000442987
2 *4509:A1 0.000687268
3 *4466:A 5.86122e-05
4 *4586:B2 0
5 *4576:B1 0
6 *4461:Y 0.000789552
7 *154:47 0.001382
8 *154:34 0.00110597
9 *154:25 0.00202039
10 *154:10 0.00201433
11 *4466:A *227:43 5.90995e-05
12 *4466:A *231:12 0.00014285
13 *4509:A1 *4459:B 0
14 *4509:A1 *4488:A 0
15 *4509:A1 *4509:B1 0.000370165
16 *4509:A1 *4566:B1 0.000110844
17 *4509:A1 *186:18 0.000100823
18 *4509:A1 *227:43 7.6644e-05
19 *4509:A1 *230:44 0
20 *4509:A1 *236:12 3.57844e-05
21 *4509:A1 *243:52 0
22 *4566:A1 *169:22 0.000149911
23 *4566:A1 *178:14 0
24 *4566:A1 *186:18 0.000479645
25 *154:10 *4575:A 2.8266e-06
26 *154:10 *168:12 0
27 *154:10 *234:12 0
28 *154:25 *4467:B 0
29 *154:25 *4575:A 2.09495e-05
30 *154:25 *4579:B 0.00018372
31 *154:25 *4658:A 0
32 *154:25 *155:74 0
33 *154:25 *155:85 0
34 *154:25 *227:12 0.000272658
35 *154:25 *234:12 0
36 *154:34 *4579:B 2.61099e-05
37 *154:34 *4590:A1 2.44318e-05
38 *154:34 *4661:A 0.000181796
39 *154:34 *158:62 0.000320585
40 *154:34 *231:12 0.00143663
41 *154:47 *186:18 3.17148e-05
42 *154:47 *227:43 0.000396495
43 *154:47 *236:12 1.31516e-05
44 *4551:A *154:34 0.000114655
45 *4565:A1 *4509:A1 0
46 *4581:A3 *154:25 0.000703778
47 *4590:A2 *154:34 0.00044852
48 *4592:S *154:34 0.000154027
49 *66:23 *154:47 0
*RES
1 *4461:Y *154:10 25.7286 
2 *154:10 *4576:B1 13.8 
3 *154:10 *154:25 28.8929 
4 *154:25 *4586:B2 9.3 
5 *154:25 *154:34 23.9643 
6 *154:34 *4466:A 11.0857 
7 *154:34 *154:47 10.3929 
8 *154:47 *4509:A1 27.8893 
9 *154:47 *4566:A1 29.3893 
*END

*D_NET *155 0.0245982
*CONN
*I *4467:A I *D sky130_fd_sc_hd__nand2_4
*I *4553:B1 I *D sky130_fd_sc_hd__a311o_1
*I *4587:B1 I *D sky130_fd_sc_hd__a31o_1
*I *4578:B1 I *D sky130_fd_sc_hd__a21o_1
*I *4492:B I *D sky130_fd_sc_hd__and2b_4
*I *4526:A I *D sky130_fd_sc_hd__nor2_1
*I *4500:A I *D sky130_fd_sc_hd__nor2_2
*I *4462:X O *D sky130_fd_sc_hd__mux2_8
*CAP
1 *4467:A 5.3063e-05
2 *4553:B1 0.000332578
3 *4587:B1 0
4 *4578:B1 0
5 *4492:B 0
6 *4526:A 0.00149587
7 *4500:A 2.12602e-05
8 *4462:X 0.00110938
9 *155:85 0.000627944
10 *155:74 0.000353906
11 *155:65 0.000783907
12 *155:30 0.00396807
13 *155:20 0.00384662
14 *155:14 0.00317736
15 *4467:A *158:43 0.000449546
16 *4467:A *160:8 0.000437109
17 *4500:A *4535:A 0
18 *4500:A *175:56 0
19 *4526:A *4535:A 0
20 *4526:A *4538:B1 0.0001381
21 *4526:A *169:117 0
22 *4553:B1 *4553:A3 0
23 *4553:B1 *4553:C1 5.41888e-05
24 *4553:B1 *158:43 0.00165871
25 *4553:B1 *160:8 0.00156909
26 *4553:B1 *165:10 7.06444e-05
27 *4553:B1 *165:14 1.53249e-05
28 *155:20 *4482:B 4.88637e-05
29 *155:20 *4492:A_N 8.30753e-05
30 *155:20 *4527:B 0.00044468
31 *155:20 *175:12 0.000276211
32 *155:20 *180:59 0.000724545
33 *155:20 *185:10 0.000188586
34 *155:30 *4500:B 0.000100215
35 *155:30 *4510:A2 0.00012318
36 *155:30 *180:59 0.000134025
37 *155:30 *185:10 0.000118413
38 *155:30 *193:21 0.000103646
39 *155:65 *4505:B1 0.000372248
40 *155:65 *4574:A 4.73656e-05
41 *155:65 *4580:A1 0.000250208
42 *155:65 *4585:A0 0.00010326
43 *155:65 *168:12 0.000597471
44 *155:65 *183:12 0
45 *4531:A2 *4526:A 0
46 *4580:A2 *155:65 8.31218e-05
47 *4580:A2 *155:74 0.000145753
48 *4581:B2 *155:65 8.89289e-05
49 *4583:S *155:74 2.72545e-05
50 *4583:S *155:85 0.000208069
51 *4586:A1 *4553:B1 6.42095e-05
52 *99:37 *4526:A 0.000102197
53 *154:25 *155:74 0
54 *154:25 *155:85 0
*RES
1 *4462:X *155:14 35.4786 
2 *155:14 *155:20 28.9107 
3 *155:20 *155:30 16.6164 
4 *155:30 *4500:A 14.0768 
5 *155:30 *4526:A 39.8268 
6 *155:20 *4492:B 9.3 
7 *155:14 *155:65 23.125 
8 *155:65 *4578:B1 13.8 
9 *155:65 *155:74 2.55357 
10 *155:74 *4587:B1 13.8 
11 *155:74 *155:85 9.78571 
12 *155:85 *4553:B1 27.2464 
13 *155:85 *4467:A 13.5321 
*END

*D_NET *156 0.0010745
*CONN
*I *4464:B1 I *D sky130_fd_sc_hd__o21ai_1
*I *4463:X O *D sky130_fd_sc_hd__or2_1
*CAP
1 *4464:B1 0.000185147
2 *4463:X 0.000185147
3 *4464:B1 *4463:B 0
4 *4464:B1 *4464:A2 0.000353079
5 *4464:B1 *4465:A1 0
6 *4464:B1 *158:14 0.000140933
7 *4464:B1 *253:10 0.000153047
8 *4464:A1 *4464:B1 5.71472e-05
*RES
1 *4463:X *4464:B1 32.9571 
*END

*D_NET *157 0.00315415
*CONN
*I *4629:A I *D sky130_fd_sc_hd__clkbuf_1
*I *4580:A1 I *D sky130_fd_sc_hd__a21oi_1
*I *4585:A0 I *D sky130_fd_sc_hd__mux2_1
*I *4464:Y O *D sky130_fd_sc_hd__o21ai_1
*CAP
1 *4629:A 2.23854e-05
2 *4580:A1 7.33005e-05
3 *4585:A0 4.17103e-05
4 *4464:Y 0.000647976
5 *157:10 0.000565104
6 *157:6 0.00112046
7 *157:10 *4658:A 5.52238e-05
8 *4464:A1 *157:6 0.00014183
9 *4580:A2 *4580:A1 1.02504e-05
10 *124:10 *4580:A1 8.6742e-05
11 *124:10 *4585:A0 3.5707e-05
12 *155:65 *4580:A1 0.000250208
13 *155:65 *4585:A0 0.00010326
*RES
1 *4464:Y *157:6 19.6929 
2 *157:6 *157:10 10.7857 
3 *157:10 *4585:A0 15.1393 
4 *157:10 *4580:A1 16.9607 
5 *157:6 *4629:A 9.72857 
*END

*D_NET *158 0.0314156
*CONN
*I *4500:B I *D sky130_fd_sc_hd__nor2_2
*I *4544:A I *D sky130_fd_sc_hd__nand2_1
*I *4529:A I *D sky130_fd_sc_hd__and3_1
*I *4559:B1 I *D sky130_fd_sc_hd__a21o_1
*I *4545:B1 I *D sky130_fd_sc_hd__a31o_1
*I *4508:B2 I *D sky130_fd_sc_hd__o22a_1
*I *4492:A_N I *D sky130_fd_sc_hd__and2b_4
*I *4553:C1 I *D sky130_fd_sc_hd__a311o_1
*I *4467:B I *D sky130_fd_sc_hd__nand2_4
*I *4587:A1 I *D sky130_fd_sc_hd__a31o_1
*I *4465:X O *D sky130_fd_sc_hd__mux2_8
*CAP
1 *4500:B 0.00101366
2 *4544:A 0
3 *4529:A 0.00033336
4 *4559:B1 0
5 *4545:B1 0.000201809
6 *4508:B2 0
7 *4492:A_N 0.000202134
8 *4553:C1 1.89801e-05
9 *4467:B 0.00137353
10 *4587:A1 0.000492194
11 *4465:X 0.000998531
12 *158:104 0.000514754
13 *158:102 0.000722529
14 *158:100 0.000881354
15 *158:86 0.00365006
16 *158:64 0.00104821
17 *158:62 0.0035057
18 *158:43 0.00193167
19 *158:14 0.00177993
20 *4492:A_N *4508:B1 1.02504e-05
21 *4500:B *4501:B2 0.000181796
22 *4500:B *4517:A2 0
23 *4500:B *4519:A1 0
24 *4500:B *4521:B1 0.000113151
25 *4500:B *4528:A2 0
26 *4500:B *4571:A1_N 2.84398e-05
27 *4500:B *4571:B2 0.000170176
28 *4500:B *4572:A1 0.000165761
29 *4500:B *4636:A 0
30 *4500:B *4656:A 0
31 *4500:B *179:42 7.55769e-05
32 *4500:B *179:59 0.000188958
33 *4500:B *180:59 0.000833995
34 *4500:B *193:21 0.000217658
35 *4529:A *4536:A2 0
36 *4529:A *4536:B1 5.52238e-05
37 *4529:A *4550:A 0
38 *4545:B1 *4524:B1 0.000243856
39 *4545:B1 *231:39 4.51317e-05
40 *4545:B1 *231:69 0
41 *4553:C1 *165:14 2.03161e-05
42 *158:14 *253:10 0.000321145
43 *158:43 *4553:A3 0
44 *158:43 *160:8 9.77274e-05
45 *158:43 *165:10 1.74352e-05
46 *158:43 *165:14 5.52238e-05
47 *158:62 *4493:A 0.000188734
48 *158:62 *4589:A3 0.000263663
49 *158:62 *160:22 6.90791e-05
50 *158:62 *165:10 5.58941e-05
51 *158:64 *4459:B 0
52 *158:64 *4480:A 0
53 *158:64 *4489:B1 0
54 *158:64 *4493:A 0.000313458
55 *158:64 *4508:B1 0.000140368
56 *158:64 *230:14 0
57 *158:64 *230:44 0
58 *158:64 *243:52 0
59 *158:86 *4481:B 1.40415e-05
60 *158:86 *4561:A1 0.000785316
61 *158:86 *4568:A3 6.28138e-05
62 *158:86 *178:14 0.000320908
63 *158:100 *4481:B 5.30853e-06
64 *158:104 *4541:B 0.000277342
65 *4459:A *158:64 3.34783e-05
66 *4464:B1 *158:14 0.000140933
67 *4467:A *158:43 0.000449546
68 *4520:B *4500:B 1.65758e-05
69 *4520:C *4500:B 4.87953e-05
70 *4521:A3 *4500:B 0.000259329
71 *4529:C *4529:A 0.000497333
72 *4532:A *4500:B 0.000186489
73 *4544:B *158:86 3.61629e-06
74 *4544:B *158:100 0.000758285
75 *4547:A2 *158:100 7.43578e-06
76 *4547:A2 *158:102 3.18676e-05
77 *4547:A3 *158:102 9.60939e-05
78 *4547:A3 *158:104 0.00122613
79 *4548:B1 *4529:A 0
80 *4550:C *4545:B1 0.000257589
81 *4553:B1 *4553:C1 5.41888e-05
82 *4553:B1 *158:43 0.00165871
83 *4560:A2 *4529:A 0.000170661
84 *4560:C1 *4529:A 0
85 *4572:A2 *4500:B 0.000101545
86 *4572:A3 *4500:B 0
87 *4579:A *158:86 0.000213632
88 *4580:A2 *4587:A1 3.69047e-06
89 *54:10 *158:14 8.04913e-05
90 *54:12 *158:14 0.000141245
91 *54:25 *158:14 2.8266e-06
92 *90:12 *4545:B1 5.52302e-05
93 *93:10 *158:62 0.000128868
94 *93:10 *158:64 0.000267807
95 *148:48 *158:86 1.21258e-05
96 *154:25 *4467:B 0
97 *154:34 *158:62 0.000320585
98 *155:20 *4492:A_N 8.30753e-05
99 *155:30 *4500:B 0.000100215
*RES
1 *4465:X *158:14 38.5857 
2 *158:14 *4587:A1 17.2286 
3 *158:14 *4467:B 23.2821 
4 *4467:B *158:43 32.4607 
5 *158:43 *4553:C1 9.84464 
6 *158:43 *158:62 27.8571 
7 *158:62 *158:64 16.5179 
8 *158:64 *4492:A_N 17.5143 
9 *158:64 *4508:B2 13.8 
10 *158:62 *158:86 28.8571 
11 *158:86 *158:100 17.1786 
12 *158:100 *158:102 1.76786 
13 *158:102 *158:104 11.625 
14 *158:104 *4545:B1 23.55 
15 *158:104 *4559:B1 9.3 
16 *158:102 *4529:A 25.6393 
17 *158:100 *4544:A 9.3 
18 *158:86 *4500:B 46.8714 
*END

*D_NET *159 0.000576184
*CONN
*I *4555:A1 I *D sky130_fd_sc_hd__a211o_1
*I *4466:Y O *D sky130_fd_sc_hd__nor2_1
*CAP
1 *4555:A1 0.000185233
2 *4466:Y 0.000185233
3 *4555:A1 *169:22 0
4 *4555:A1 *231:12 0.00014285
5 *4549:A2 *4555:A1 2.6949e-05
6 *4555:A2 *4555:A1 1.02504e-05
7 *66:23 *4555:A1 2.56694e-05
*RES
1 *4466:Y *4555:A1 30.9036 
*END

*D_NET *160 0.0259832
*CONN
*I *4473:A I *D sky130_fd_sc_hd__or3_4
*I *4571:A1_N I *D sky130_fd_sc_hd__a2bb2o_1
*I *4593:A I *D sky130_fd_sc_hd__or4_1
*I *4536:B1 I *D sky130_fd_sc_hd__a31oi_1
*I *4513:C1 I *D sky130_fd_sc_hd__a311o_1
*I *4502:A1 I *D sky130_fd_sc_hd__o21ai_1
*I *4467:Y O *D sky130_fd_sc_hd__nand2_4
*CAP
1 *4473:A 0.000249993
2 *4571:A1_N 2.25532e-05
3 *4593:A 0.0003
4 *4536:B1 0.00015793
5 *4513:C1 0.000344219
6 *4502:A1 9.15075e-05
7 *4467:Y 0.000309414
8 *160:68 0.00104907
9 *160:37 0.00147344
10 *160:35 0.00107133
11 *160:22 0.00178362
12 *160:8 0.00174081
13 *4473:A *4473:C 0.000193175
14 *4473:A *4582:A 0
15 *4473:A *165:10 3.57844e-05
16 *4473:A *165:36 6.5185e-05
17 *4502:A1 *4489:A3 0.00010096
18 *4502:A1 *4509:B1 0.000220441
19 *4513:C1 *4513:A3 9.41642e-05
20 *4513:C1 *4556:A3 0.000126446
21 *4593:A *4535:A 9.51042e-05
22 *4593:A *4593:C 7.32173e-05
23 *4593:A *4593:D 0.000326686
24 *4593:A *221:6 1.39841e-05
25 *160:8 *165:10 0.00218145
26 *160:22 *4489:A3 5.97623e-05
27 *160:22 *4509:B1 0.00012401
28 *160:22 *4542:A2 0
29 *160:22 *4589:A1 5.41794e-05
30 *160:22 *4589:A3 5.41797e-06
31 *160:22 *4589:B1 0.000143052
32 *160:22 *164:29 0.000350405
33 *160:22 *165:10 1.52978e-05
34 *160:22 *168:26 5.03787e-05
35 *160:22 *183:18 0.0015573
36 *160:22 *236:25 0
37 *160:22 *243:46 0.000653871
38 *160:22 *243:52 0.000485543
39 *160:35 *230:22 0.0014716
40 *160:68 *4535:A 0.00127462
41 *160:68 *4593:D 0.000215912
42 *160:68 *228:62 1.94945e-05
43 *4467:A *160:8 0.000437109
44 *4500:B *4571:A1_N 2.84398e-05
45 *4513:A1 *4513:C1 6.13724e-05
46 *4513:B1 *4513:C1 4.72749e-05
47 *4521:A3 *4571:A1_N 5.58941e-05
48 *4529:A *4536:B1 5.52238e-05
49 *4529:C *4536:B1 9.50968e-06
50 *4531:A1 *4536:B1 0.000137427
51 *4539:A1 *4536:B1 0.000259586
52 *4539:A1 *4593:A 5.66157e-05
53 *4539:A1 *160:68 0.00017309
54 *4539:A2 *160:68 0.000620622
55 *4553:B1 *160:8 0.00156909
56 *4571:A2_N *4513:C1 0.000182694
57 *4571:A2_N *160:35 4.27935e-05
58 *4571:A2_N *160:37 0.0011663
59 *4571:B1 *160:35 0.00177241
60 *4594:B *4593:A 3.37729e-05
61 *65:32 *4513:C1 0.000126446
62 *130:26 *160:68 1.94879e-05
63 *147:10 *4473:A 0.000207948
64 *147:10 *160:22 3.4323e-05
65 *147:12 *160:22 6.38485e-05
66 *148:23 *160:35 5.38388e-05
67 *158:43 *160:8 9.77274e-05
68 *158:62 *160:22 6.90791e-05
*RES
1 *4467:Y *160:8 34.4607 
2 *160:8 *160:22 41.625 
3 *160:22 *4502:A1 16.6571 
4 *160:22 *160:35 23.5179 
5 *160:35 *160:37 11.2143 
6 *160:37 *4513:C1 26.0857 
7 *160:37 *160:68 24.5179 
8 *160:68 *4536:B1 18.4429 
9 *160:68 *4593:A 20.675 
10 *160:35 *4571:A1_N 19.0321 
11 *160:8 *4473:A 21.2107 
*END

*D_NET *161 0.00194023
*CONN
*I *4469:B1 I *D sky130_fd_sc_hd__o21ai_4
*I *4468:X O *D sky130_fd_sc_hd__or2_4
*CAP
1 *4469:B1 0.00094154
2 *4468:X 0.00094154
3 *4469:B1 *245:16 5.71472e-05
4 *4469:B1 *256:12 0
5 *143:12 *4469:B1 0
*RES
1 *4468:X *4469:B1 44.6536 
*END

*D_NET *162 0.0224401
*CONN
*I *4592:A0 I *D sky130_fd_sc_hd__mux2_1
*I *4562:B2 I *D sky130_fd_sc_hd__a22o_1
*I *4511:B2 I *D sky130_fd_sc_hd__a32o_1
*I *4534:A1 I *D sky130_fd_sc_hd__a22o_1
*I *4572:B1 I *D sky130_fd_sc_hd__o31a_1
*I *4548:B2 I *D sky130_fd_sc_hd__a22o_1
*I *4593:B I *D sky130_fd_sc_hd__or4_1
*I *4473:B I *D sky130_fd_sc_hd__or3_4
*I *4583:A1 I *D sky130_fd_sc_hd__mux2_1
*I *4469:Y O *D sky130_fd_sc_hd__o21ai_4
*CAP
1 *4592:A0 0.000260699
2 *4562:B2 0.000114239
3 *4511:B2 0
4 *4534:A1 0
5 *4572:B1 0.00093992
6 *4548:B2 0.00032583
7 *4593:B 0.000567329
8 *4473:B 0
9 *4583:A1 0.00124104
10 *4469:Y 0.00114162
11 *162:93 0.000176177
12 *162:49 0.00120463
13 *162:45 0.00153432
14 *162:43 0.000698238
15 *162:39 0.00179962
16 *162:26 0.00146655
17 *162:24 0.00103352
18 *162:8 0.00175403
19 *4548:B2 *4548:A1 0.000268682
20 *4548:B2 *216:6 0.000361914
21 *4562:B2 *4511:A1 3.51442e-05
22 *4572:B1 *4534:B2 0
23 *4572:B1 *169:113 2.04825e-05
24 *4572:B1 *186:22 3.18676e-05
25 *4572:B1 *242:34 0
26 *4583:A1 *243:10 0
27 *4583:A1 *243:16 0
28 *4593:B *221:6 0.000369375
29 *162:8 *164:16 0.00183977
30 *162:8 *227:12 0.000130339
31 *162:8 *227:16 3.4879e-05
32 *162:26 *4473:C 2.89016e-05
33 *162:39 *4473:C 6.09919e-05
34 *162:39 *4511:A1 0.000201127
35 *162:39 *221:6 0.00123228
36 *162:43 *215:8 0.00101424
37 *162:93 *4511:A1 0.00014576
38 *4469:A1 *162:8 0.000613026
39 *4532:A *4572:B1 0.000287805
40 *4534:B1 *4572:B1 0
41 *4548:A2 *4548:B2 0
42 *4548:B1 *4548:B2 5.62995e-05
43 *4562:B1 *4562:B2 0.000103041
44 *4572:A3 *4572:B1 4.46186e-06
45 *4581:B1 *162:8 6.39773e-05
46 *4583:A0 *4583:A1 7.83659e-05
47 *4583:S *4583:A1 0.000477181
48 *4587:A3 *4583:A1 0.00017309
49 *4592:A1 *4592:A0 5.52302e-05
50 *4592:S *4592:A0 0.000178922
51 *62:14 *162:39 0.000202835
52 *62:14 *162:93 0.000112323
*RES
1 *4469:Y *162:8 42.2643 
2 *162:8 *4583:A1 27.5857 
3 *4583:A1 *162:24 19.6929 
4 *162:24 *162:26 2.17857 
5 *162:26 *4473:B 9.3 
6 *162:26 *162:39 29.7857 
7 *162:39 *162:43 15.3036 
8 *162:43 *162:45 4.23214 
9 *162:45 *162:49 9.14286 
10 *162:49 *4593:B 22.3357 
11 *162:49 *4548:B2 22.3536 
12 *162:45 *4572:B1 36.5679 
13 *162:43 *4534:A1 9.3 
14 *162:39 *162:93 1.94643 
15 *162:93 *4511:B2 13.8 
16 *162:93 *4562:B2 16.6571 
17 *162:24 *4592:A0 23.3179 
*END

*D_NET *163 0.000689903
*CONN
*I *4472:B1 I *D sky130_fd_sc_hd__o21ai_2
*I *4470:X O *D sky130_fd_sc_hd__or2_1
*CAP
1 *4472:B1 0.00012654
2 *4470:X 0.00012654
3 *4472:B1 *4472:A2 1.24368e-05
4 *4472:B1 *4478:S 7.8327e-05
5 *4472:B1 *243:10 8.02709e-05
6 *4472:B1 *246:12 0.000213179
7 *4472:B1 *253:10 5.26091e-05
*RES
1 *4470:X *4472:B1 31.725 
*END

*D_NET *164 0.0103445
*CONN
*I *4507:A2 I *D sky130_fd_sc_hd__o22a_1
*I *4505:A1 I *D sky130_fd_sc_hd__a31o_1
*I *4634:A I *D sky130_fd_sc_hd__clkbuf_1
*I *4471:X O *D sky130_fd_sc_hd__mux2_4
*CAP
1 *4507:A2 0
2 *4505:A1 0.000445294
3 *4634:A 0.000167035
4 *4471:X 0.000159839
5 *164:29 0.000963869
6 *164:16 0.00209975
7 *164:10 0.00157398
8 *4505:A1 *4482:B 0
9 *4505:A1 *4505:B1 0.000394701
10 *4505:A1 *4527:B 5.59013e-05
11 *4505:A1 *175:12 5.59013e-05
12 *4505:A1 *175:23 1.39841e-05
13 *4505:A1 *175:48 0
14 *4505:A1 *175:83 0
15 *4634:A *230:10 8.27184e-06
16 *4634:A *240:8 5.52238e-05
17 *164:10 *255:12 0.000320038
18 *164:16 *227:16 0.000255157
19 *164:16 *240:8 0.000138919
20 *164:16 *240:21 0.000156816
21 *164:29 *4507:A1 0.000572021
22 *164:29 *4542:A2 0
23 *164:29 *175:83 0
24 *4570:B1 *4505:A1 0
25 *4583:S *164:16 0.000530254
26 *118:10 *4505:A1 5.80706e-06
27 *118:10 *164:29 3.57844e-05
28 *147:12 *164:29 6.44449e-05
29 *147:14 *164:29 8.13657e-05
30 *160:22 *164:29 0.000350405
31 *162:8 *164:16 0.00183977
*RES
1 *4471:X *164:10 22.3714 
2 *164:10 *164:16 31.0714 
3 *164:16 *4634:A 11.6929 
4 *164:16 *164:29 18.2857 
5 *164:29 *4505:A1 20.9071 
6 *164:29 *4507:A2 13.8 
*END

*D_NET *165 0.0124012
*CONN
*I *4473:C I *D sky130_fd_sc_hd__or3_4
*I *4628:A I *D sky130_fd_sc_hd__clkbuf_1
*I *4551:B I *D sky130_fd_sc_hd__and4_1
*I *4493:A I *D sky130_fd_sc_hd__nand2_2
*I *4472:Y O *D sky130_fd_sc_hd__o21ai_2
*CAP
1 *4473:C 0.000322736
2 *4628:A 8.23804e-05
3 *4551:B 0
4 *4493:A 0.00060152
5 *4472:Y 0.000751142
6 *165:36 0.000457072
7 *165:14 0.00126695
8 *165:10 0.00146853
9 *4473:C *4582:A 5.57914e-05
10 *4473:C *4589:A3 1.08359e-05
11 *4473:C *4666:A 0
12 *4493:A *4459:B 0
13 *4493:A *4503:B 9.25014e-06
14 *4493:A *4551:C 2.89114e-05
15 *4493:A *227:26 5.52238e-05
16 *4493:A *236:12 0
17 *4628:A *4589:A3 5.52238e-05
18 *165:10 *4472:A2 5.30637e-06
19 *165:10 *4589:A3 2.49484e-05
20 *165:10 *243:10 0.00223116
21 *165:14 *4551:C 0.000290216
22 *165:14 *4553:A3 5.13964e-05
23 *165:36 *4589:A3 6.07232e-05
24 *4459:A *4493:A 5.71472e-05
25 *4473:A *4473:C 0.000193175
26 *4473:A *165:10 3.57844e-05
27 *4473:A *165:36 6.5185e-05
28 *4551:A *165:14 8.25843e-06
29 *4553:B1 *165:10 7.06444e-05
30 *4553:B1 *165:14 1.53249e-05
31 *4553:C1 *165:14 2.03161e-05
32 *4586:A1 *165:10 0.00117963
33 *4586:A1 *165:14 9.01775e-06
34 *158:43 *165:10 1.74352e-05
35 *158:43 *165:14 5.52238e-05
36 *158:62 *4493:A 0.000188734
37 *158:62 *165:10 5.58941e-05
38 *158:64 *4493:A 0.000313458
39 *160:8 *165:10 0.00218145
40 *160:22 *165:10 1.52978e-05
41 *162:26 *4473:C 2.89016e-05
42 *162:39 *4473:C 6.09919e-05
*RES
1 *4472:Y *165:10 47.7107 
2 *165:10 *165:14 13.25 
3 *165:14 *4493:A 29.8179 
4 *165:14 *4551:B 9.3 
5 *165:10 *165:36 1.64286 
6 *165:36 *4628:A 15.1571 
7 *165:36 *4473:C 21.0857 
*END

*D_NET *166 0.00288904
*CONN
*I *4591:B1 I *D sky130_fd_sc_hd__a21oi_1
*I *4477:A I *D sky130_fd_sc_hd__nor2_2
*I *4582:A I *D sky130_fd_sc_hd__nor2_1
*I *4473:X O *D sky130_fd_sc_hd__or3_4
*CAP
1 *4591:B1 4.48548e-05
2 *4477:A 0.000181029
3 *4582:A 0.000198272
4 *4473:X 0
5 *166:21 0.000348009
6 *166:6 0.000320397
7 *4477:A *4591:A2 0.000181796
8 *4477:A *215:8 0.000578029
9 *4582:A *4582:B 0.000314139
10 *4582:A *4666:A 0.00020455
11 *4591:B1 *4591:A1 2.44318e-05
12 *4591:B1 *4591:A2 4.27935e-05
13 *4591:B1 *215:8 0.000184745
14 *166:21 *4666:A 0.000210198
15 *4473:A *4582:A 0
16 *4473:C *4582:A 5.57914e-05
17 *4592:A1 *166:21 0
18 *147:10 *4582:A 0
19 *147:10 *166:21 0
*RES
1 *4473:X *166:6 13.8 
2 *166:6 *4582:A 19.3536 
3 *166:6 *166:21 7.35714 
4 *166:21 *4477:A 15.1929 
5 *166:21 *4591:B1 11.0679 
*END

*D_NET *167 0.000652315
*CONN
*I *4475:B1 I *D sky130_fd_sc_hd__o21a_4
*I *4476:B1 I *D sky130_fd_sc_hd__o21ai_4
*I *4474:X O *D sky130_fd_sc_hd__or2_4
*CAP
1 *4475:B1 0
2 *4476:B1 0.000116536
3 *4474:X 0.000152037
4 *167:6 0.000268573
5 *4476:B1 *4475:A2 5.80217e-05
6 *4476:B1 *4476:A1 0
7 *167:6 *4475:A1 5.71472e-05
*RES
1 *4474:X *167:6 11.8893 
2 *167:6 *4476:B1 20.8536 
3 *167:6 *4475:B1 9.3 
*END

*D_NET *168 0.0146055
*CONN
*I *4581:A1 I *D sky130_fd_sc_hd__a32o_1
*I *4580:B1 I *D sky130_fd_sc_hd__a21oi_1
*I *4589:B1 I *D sky130_fd_sc_hd__o31a_1
*I *4504:B1 I *D sky130_fd_sc_hd__o21ai_1
*I *4572:A1 I *D sky130_fd_sc_hd__o31a_1
*I *4521:B1 I *D sky130_fd_sc_hd__a31o_1
*I *4475:X O *D sky130_fd_sc_hd__o21a_4
*CAP
1 *4581:A1 0.000171364
2 *4580:B1 0
3 *4589:B1 0.000155474
4 *4504:B1 0
5 *4572:A1 0.000219834
6 *4521:B1 0.000183521
7 *4475:X 0.000778842
8 *168:30 0.000827101
9 *168:26 0.00127435
10 *168:18 0.00195173
11 *168:12 0.00189585
12 *4521:B1 *4517:A3 0
13 *4521:B1 *4636:A 2.94103e-05
14 *4572:A1 *4636:A 0.000119159
15 *4572:A1 *186:22 0.00018372
16 *4589:B1 *4589:A3 1.02504e-05
17 *4589:B1 *4666:A 0.000150625
18 *4589:B1 *236:25 0.000185297
19 *4589:B1 *236:51 6.02699e-05
20 *168:12 *4505:B1 0.000370526
21 *168:12 *4574:A 5.59013e-05
22 *168:12 *4575:A 0
23 *168:18 *4588:A3 0.000438794
24 *168:18 *227:26 0.000377237
25 *168:26 *4507:A1 5.52302e-05
26 *168:26 *4542:A1 2.59355e-05
27 *168:26 *4542:C1 3.45453e-05
28 *168:26 *236:25 0.000150632
29 *168:26 *243:56 0.000146321
30 *168:30 *4504:A2 0.0015563
31 *168:30 *4635:A 5.03772e-05
32 *168:30 *4656:A 9.71197e-05
33 *168:30 *243:56 0.000893817
34 *4500:B *4521:B1 0.000113151
35 *4500:B *4572:A1 0.000165761
36 *4521:A2 *4521:B1 5.52238e-05
37 *4543:B1 *168:26 0.000274288
38 *4572:A2 *4572:A1 2.27416e-05
39 *4573:B1 *4572:A1 0.000100823
40 *4573:B2 *4572:A1 5.52302e-05
41 *4581:A2 *4581:A1 0.000150625
42 *4581:A2 *168:12 0
43 *4581:A3 *168:12 0
44 *4581:B2 *4581:A1 7.02532e-05
45 *4581:B2 *168:12 5.41794e-05
46 *4581:B2 *168:18 1.24368e-05
47 *65:38 *168:30 0.000113083
48 *121:12 *168:12 0.000177234
49 *154:10 *168:12 0
50 *155:65 *168:12 0.000597471
51 *160:22 *4589:B1 0.000143052
52 *160:22 *168:26 5.03787e-05
*RES
1 *4475:X *168:12 35.9607 
2 *168:12 *168:18 22.7143 
3 *168:18 *168:26 20.1429 
4 *168:26 *168:30 22.2857 
5 *168:30 *4521:B1 17.1929 
6 *168:30 *4572:A1 20.3714 
7 *168:26 *4504:B1 9.3 
8 *168:18 *4589:B1 19.0857 
9 *168:12 *4580:B1 9.3 
10 *168:12 *4581:A1 22.0143 
*END

*D_NET *169 0.0245733
*CONN
*I *4593:C I *D sky130_fd_sc_hd__or4_1
*I *4539:B1 I *D sky130_fd_sc_hd__o21a_1
*I *4526:B I *D sky130_fd_sc_hd__nor2_1
*I *4590:A1 I *D sky130_fd_sc_hd__a22o_1
*I *4502:B1 I *D sky130_fd_sc_hd__o21ai_1
*I *4477:B I *D sky130_fd_sc_hd__nor2_2
*I *4561:B2 I *D sky130_fd_sc_hd__a221o_1
*I *4523:B I *D sky130_fd_sc_hd__or4_1
*I *4522:A I *D sky130_fd_sc_hd__nor2_1
*I *4476:Y O *D sky130_fd_sc_hd__o21ai_4
*CAP
1 *4593:C 0.000335754
2 *4539:B1 0.000247061
3 *4526:B 0
4 *4590:A1 0.000701121
5 *4502:B1 5.40981e-05
6 *4477:B 0.00109497
7 *4561:B2 1.23956e-05
8 *4523:B 0.001461
9 *4522:A 0
10 *4476:Y 0.0016373
11 *169:117 0.000395769
12 *169:113 0.00126968
13 *169:43 0.00102617
14 *169:33 0.00146806
15 *169:22 0.00148555
16 *169:16 0.00309441
17 *169:12 0.00392827
18 *4477:B *4582:B 0
19 *4477:B *4669:A 7.26935e-05
20 *4477:B *196:6 0.000177421
21 *4477:B *228:14 0.000182899
22 *4523:B *196:16 2.16819e-05
23 *4561:B2 *196:16 2.03648e-05
24 *4590:A1 *4482:A_N 0.000564057
25 *4590:A1 *4588:A1 0.000272679
26 *4590:A1 *4588:A3 0
27 *4590:A1 *171:17 8.24047e-05
28 *4590:A1 *227:26 0.000101545
29 *4590:A1 *238:16 0
30 *4590:A1 *244:10 8.87397e-05
31 *4593:C *4535:A 0.000106075
32 *4593:C *221:6 0.000402784
33 *169:12 *4482:A_N 0.000241047
34 *169:12 *4482:B 0.000124352
35 *169:12 *244:10 3.98131e-05
36 *169:16 *4489:A2 0.000922646
37 *169:16 *4489:A3 0.000353086
38 *169:16 *4507:B1 0.000352053
39 *169:16 *4542:A2 6.62898e-05
40 *169:16 *189:14 9.90367e-05
41 *169:16 *244:25 5.22592e-05
42 *169:16 *244:29 1.84421e-05
43 *169:22 *4489:A3 0
44 *169:22 *4561:A1 0
45 *169:22 *178:14 0
46 *169:22 *178:16 0
47 *169:22 *222:65 0
48 *169:22 *244:29 8.35655e-05
49 *169:33 *222:65 0
50 *169:43 *196:16 6.88464e-05
51 *169:43 *228:22 2.09897e-05
52 *169:113 *242:34 6.2589e-06
53 *169:117 *4535:A 4.7024e-05
54 *4526:A *169:117 0
55 *4532:A *169:113 3.16801e-05
56 *4532:C *169:113 0.000344859
57 *4532:C *169:117 0.000128154
58 *4534:A2 *4523:B 5.52238e-05
59 *4534:A2 *169:113 0.00014285
60 *4555:A1 *169:22 0
61 *4555:A2 *169:22 6.17134e-05
62 *4555:A2 *169:33 1.30905e-05
63 *4565:A1 *169:22 0
64 *4566:A1 *169:22 0.000149911
65 *4572:B1 *169:113 2.04825e-05
66 *4590:A2 *4590:A1 0.00014285
67 *4590:B1 *4590:A1 0
68 *4593:A *4593:C 7.32173e-05
69 *62:14 *169:22 0
70 *62:14 *169:43 1.94945e-05
71 *66:23 *169:22 0
72 *77:6 *4539:B1 3.18676e-05
73 *77:14 *4539:B1 0.000160287
74 *109:18 *4523:B 0.000372514
75 *147:14 *4590:A1 0
76 *147:22 *4590:A1 0
77 *154:34 *4590:A1 2.44318e-05
*RES
1 *4476:Y *169:12 38.8536 
2 *169:12 *169:16 26.3929 
3 *169:16 *169:22 28.1607 
4 *169:22 *4522:A 13.8 
5 *169:22 *169:33 3.99036 
6 *169:33 *169:43 9.68022 
7 *169:43 *4523:B 19.3223 
8 *169:43 *4561:B2 9.72857 
9 *169:33 *4477:B 26.3897 
10 *169:16 *4502:B1 10.3357 
11 *169:12 *4590:A1 31.4786 
12 *4523:B *169:113 34.4071 
13 *169:113 *169:117 7.66071 
14 *169:117 *4526:B 9.3 
15 *169:117 *4539:B1 13.5679 
16 *169:113 *4593:C 21.6929 
*END

*D_NET *170 0.0100443
*CONN
*I *4562:A1 I *D sky130_fd_sc_hd__a22o_1
*I *4511:A2 I *D sky130_fd_sc_hd__a32o_1
*I *4573:A2 I *D sky130_fd_sc_hd__a22o_1
*I *4534:B2 I *D sky130_fd_sc_hd__a22o_1
*I *4548:A1 I *D sky130_fd_sc_hd__a22o_1
*I *4477:Y O *D sky130_fd_sc_hd__nor2_2
*CAP
1 *4562:A1 0.000140922
2 *4511:A2 0
3 *4573:A2 0.000801341
4 *4534:B2 9.73512e-05
5 *4548:A1 0.000599923
6 *4477:Y 0.000458422
7 *170:22 0.000829955
8 *170:20 0.00160441
9 *170:12 0.000670389
10 *170:10 0.000599343
11 *4548:A1 *216:6 0.000308536
12 *4562:A1 *4562:A2 0.000119684
13 *4573:A2 *4485:B 8.76484e-05
14 *4573:A2 *4533:B1 0
15 *4573:A2 *4636:A 6.03387e-05
16 *4573:A2 *186:22 1.98839e-05
17 *4573:A2 *196:27 0.00034913
18 *4573:A2 *196:33 0.000380844
19 *4573:A2 *218:8 3.69047e-06
20 *4573:A2 *229:30 0
21 *4573:A2 *229:38 0
22 *170:10 *215:8 0.00114761
23 *170:20 *4511:A1 2.16629e-05
24 *170:20 *216:6 0.000383385
25 *170:22 *216:6 0.000103004
26 *4485:A *4573:A2 0.000225307
27 *4534:A2 *4573:A2 0.000288712
28 *4534:B1 *4534:B2 5.80706e-06
29 *4548:B2 *4548:A1 0.000268682
30 *4562:B1 *4562:A1 0.000237502
31 *4562:B1 *170:10 6.09476e-05
32 *4572:B1 *4534:B2 0
33 *4573:A1 *4573:A2 5.52238e-05
34 *62:14 *170:20 0.000114596
*RES
1 *4477:Y *170:10 26.2464 
2 *170:10 *170:12 4.5 
3 *170:12 *170:20 12.1964 
4 *170:20 *170:22 2.58929 
5 *170:22 *4548:A1 21.3357 
6 *170:22 *4534:B2 20.2464 
7 *170:20 *4573:A2 38.4964 
8 *170:12 *4511:A2 9.3 
9 *170:10 *4562:A1 17.6214 
*END

*D_NET *171 0.00814687
*CONN
*I *4587:A2 I *D sky130_fd_sc_hd__a31o_1
*I *4579:D I *D sky130_fd_sc_hd__and4_1
*I *4482:A_N I *D sky130_fd_sc_hd__nand2b_4
*I *4632:A I *D sky130_fd_sc_hd__clkbuf_1
*I *4478:X O *D sky130_fd_sc_hd__mux2_8
*CAP
1 *4587:A2 0.000151994
2 *4579:D 0
3 *4482:A_N 0.000839528
4 *4632:A 0.000159489
5 *4478:X 0.00141735
6 *171:34 0.000331703
7 *171:17 0.00146134
8 *171:6 0.00201894
9 *4482:A_N *4577:A 0
10 *171:17 *4579:B 0
11 *171:17 *238:10 0
12 *171:34 *4579:B 5.52238e-05
13 *4579:A *171:34 0.000230482
14 *4580:A2 *4587:A2 0.000142844
15 *4586:B1 *4482:A_N 0
16 *4586:B1 *171:17 0
17 *4588:B1 *4587:A2 0.000360894
18 *4588:B1 *171:34 8.95673e-05
19 *4590:A1 *4482:A_N 0.000564057
20 *4590:A1 *171:17 8.24047e-05
21 *4590:B2 *171:17 0
22 *4592:S *171:17 0
23 *169:12 *4482:A_N 0.000241047
*RES
1 *4478:X *171:6 32.8357 
2 *171:6 *4632:A 11.8893 
3 *171:6 *171:17 11.9107 
4 *171:17 *4482:A_N 33.05 
5 *171:17 *171:34 8.875 
6 *171:34 *4579:D 9.3 
7 *171:34 *4587:A2 13.9429 
*END

*D_NET *172 0.00208905
*CONN
*I *4494:A1 I *D sky130_fd_sc_hd__o221a_1
*I *4495:B I *D sky130_fd_sc_hd__nor2_1
*I *4479:Y O *D sky130_fd_sc_hd__inv_1
*CAP
1 *4494:A1 0.000391145
2 *4495:B 0.000225848
3 *4479:Y 0
4 *172:4 0.000616993
5 *4494:A1 *4494:A2 4.6025e-06
6 *4494:A1 *175:48 3.97657e-05
7 *4494:A1 *185:10 0
8 *4495:B *4517:A2 0.000141721
9 *4495:B *4518:C1 0.000149543
10 *4495:B *239:14 0.000121063
11 *4494:B2 *4494:A1 0.000319316
12 *4494:B2 *4495:B 7.90536e-05
13 *4518:B1 *4494:A1 0
14 *4518:B1 *4495:B 0
*RES
1 *4479:Y *172:4 9.3 
2 *172:4 *4495:B 23.7732 
3 *172:4 *4494:A1 24.2732 
*END

*D_NET *173 0.00650607
*CONN
*I *4543:A2 I *D sky130_fd_sc_hd__a31o_1
*I *4493:B I *D sky130_fd_sc_hd__nand2_2
*I *4542:C1 I *D sky130_fd_sc_hd__o211a_1
*I *4489:A2 I *D sky130_fd_sc_hd__a32o_1
*I *4505:A2 I *D sky130_fd_sc_hd__a31o_1
*I *4480:Y O *D sky130_fd_sc_hd__nand2_2
*CAP
1 *4543:A2 0
2 *4493:B 3.54641e-05
3 *4542:C1 0.000174924
4 *4489:A2 0.000185503
5 *4505:A2 6.92225e-05
6 *4480:Y 4.39256e-05
7 *173:47 0.000191982
8 *173:30 0.000439874
9 *173:10 0.000322629
10 *173:8 0.000220261
11 *4489:A2 *4489:B1 2.39852e-05
12 *4489:A2 *244:25 0.000287635
13 *4489:A2 *244:29 5.73227e-05
14 *4493:B *4588:A3 3.18676e-05
15 *4493:B *178:42 1.21289e-05
16 *4493:B *227:26 0.000183726
17 *4505:A2 *175:48 3.34295e-05
18 *4505:A2 *175:83 0.000187019
19 *4505:A2 *180:63 0.000220448
20 *4542:C1 *4507:A1 6.20656e-05
21 *4542:C1 *4542:A1 5.33005e-05
22 *173:8 *230:68 0.000271339
23 *173:10 *175:83 0.000193833
24 *173:10 *180:63 0.000184583
25 *173:30 *175:83 0.000308599
26 *173:30 *180:63 0.000301064
27 *173:47 *4588:A3 0.000203286
28 *173:47 *4591:A2 0.000212634
29 *173:47 *175:83 3.34366e-05
30 *173:47 *180:63 0.000235092
31 *173:47 *227:26 0.000399835
32 *4459:A *4493:B 9.71197e-05
33 *4571:B1 *173:8 0.000271339
34 *168:26 *4542:C1 3.45453e-05
35 *169:16 *4489:A2 0.000922646
*RES
1 *4480:Y *173:8 16.3893 
2 *173:8 *173:10 2.55357 
3 *173:10 *4505:A2 16.6571 
4 *173:10 *4489:A2 22.55 
5 *173:8 *173:30 4.07143 
6 *173:30 *4542:C1 16.8179 
7 *173:30 *173:47 11.4821 
8 *173:47 *4493:B 11.0679 
9 *173:47 *4543:A2 9.3 
*END

*D_NET *174 0.0010217
*CONN
*I *4568:A3 I *D sky130_fd_sc_hd__a31o_1
*I *4481:Y O *D sky130_fd_sc_hd__nand2_1
*CAP
1 *4568:A3 0.000163781
2 *4481:Y 0.000163781
3 *4568:A3 *4568:A2 0.00014576
4 *4568:A3 *178:14 2.89114e-05
5 *4568:A3 *196:27 9.25014e-06
6 *4568:A3 *196:33 0.000144038
7 *4544:B *4568:A3 0.000303362
8 *158:86 *4568:A3 6.28138e-05
*RES
1 *4481:Y *4568:A3 32.5464 
*END

*D_NET *175 0.022331
*CONN
*I *4591:A2 I *D sky130_fd_sc_hd__a21oi_1
*I *4542:A1 I *D sky130_fd_sc_hd__o211a_1
*I *4519:A2 I *D sky130_fd_sc_hd__a21o_1
*I *4535:A I *D sky130_fd_sc_hd__nand2_1
*I *4528:A1 I *D sky130_fd_sc_hd__a21o_1
*I *4505:A3 I *D sky130_fd_sc_hd__a31o_1
*I *4527:A I *D sky130_fd_sc_hd__nand2_1
*I *4482:Y O *D sky130_fd_sc_hd__nand2b_4
*CAP
1 *4591:A2 0.000784369
2 *4542:A1 2.04425e-05
3 *4519:A2 2.23854e-05
4 *4535:A 0.00119081
5 *4528:A1 0
6 *4505:A3 8.70176e-05
7 *4527:A 0
8 *4482:Y 0.000192418
9 *175:83 0.00109158
10 *175:56 0.00217248
11 *175:48 0.00373061
12 *175:34 0.00301333
13 *175:23 0.00030094
14 *175:12 0.000406341
15 *4535:A *4535:B 0
16 *4535:A *4538:A1 6.53968e-05
17 *4535:A *4538:A2 6.09476e-05
18 *4535:A *4538:B1 0
19 *4535:A *4556:A3 0
20 *4535:A *4593:D 0
21 *4591:A2 *4553:A2 0.000102545
22 *4591:A2 *4582:B 0.000186641
23 *4591:A2 *4591:A1 0.000471021
24 *4591:A2 *4666:A 7.79781e-06
25 *4591:A2 *180:63 0.00038602
26 *4591:A2 *236:51 5.31541e-05
27 *4591:A2 *236:70 0.000122993
28 *4591:A2 *238:24 0.000549564
29 *175:12 *4482:B 5.71472e-05
30 *175:12 *4527:B 7.71225e-05
31 *175:23 *4505:B1 0.00021526
32 *175:48 *4479:A 2.80853e-05
33 *175:48 *4518:C1 9.80173e-05
34 *175:48 *4527:B 0
35 *175:48 *179:42 7.77652e-05
36 *175:48 *180:63 0.000122279
37 *175:56 *4519:A1 0.000144773
38 *175:56 *179:12 0
39 *175:56 *179:42 1.21289e-05
40 *175:56 *192:29 0.000510112
41 *175:83 *4542:A2 0.000102071
42 *175:83 *238:24 0.000378429
43 *4477:A *4591:A2 0.000181796
44 *4494:A1 *175:48 3.97657e-05
45 *4494:B2 *175:48 6.97409e-05
46 *4500:A *4535:A 0
47 *4500:A *175:56 0
48 *4505:A1 *175:12 5.59013e-05
49 *4505:A1 *175:23 1.39841e-05
50 *4505:A1 *175:48 0
51 *4505:A1 *175:83 0
52 *4505:A2 *175:48 3.34295e-05
53 *4505:A2 *175:83 0.000187019
54 *4518:A1 *4519:A2 0
55 *4518:B1 *175:48 0.000177142
56 *4526:A *4535:A 0
57 *4530:B1 *4535:A 6.74911e-05
58 *4531:A1 *4535:A 0.000125724
59 *4531:A2 *4535:A 0.0015785
60 *4532:C *4535:A 6.97972e-05
61 *4539:A1 *4535:A 5.31541e-05
62 *4539:A2 *4535:A 2.87473e-05
63 *4542:C1 *4542:A1 5.33005e-05
64 *4551:A *4591:A2 0.000100823
65 *4570:B1 *175:23 2.89114e-05
66 *4591:B1 *4591:A2 4.27935e-05
67 *4593:A *4535:A 9.51042e-05
68 *4593:C *4535:A 0.000106075
69 *151:42 *175:48 7.49387e-06
70 *155:20 *175:12 0.000276211
71 *160:68 *4535:A 0.00127462
72 *164:29 *175:83 0
73 *168:26 *4542:A1 2.59355e-05
74 *169:117 *4535:A 4.7024e-05
75 *173:10 *175:83 0.000193833
76 *173:30 *175:83 0.000308599
77 *173:47 *4591:A2 0.000212634
78 *173:47 *175:83 3.34366e-05
*RES
1 *4482:Y *175:12 23.4429 
2 *175:12 *4527:A 9.3 
3 *175:12 *175:23 5.08929 
4 *175:23 *4505:A3 10.675 
5 *175:23 *175:34 4.5 
6 *175:34 *175:48 43.6607 
7 *175:48 *175:56 18.7857 
8 *175:56 *4528:A1 13.8 
9 *175:56 *4535:A 48.4607 
10 *175:48 *4519:A2 9.72857 
11 *175:34 *175:83 9.23214 
12 *175:83 *4542:A1 14.3357 
13 *175:83 *4591:A2 38.2643 
*END

*D_NET *176 0.00821467
*CONN
*I *4546:A1 I *D sky130_fd_sc_hd__a31o_1
*I *4525:A2 I *D sky130_fd_sc_hd__a211o_1
*I *4567:B2 I *D sky130_fd_sc_hd__o32a_1
*I *4483:Y O *D sky130_fd_sc_hd__xnor2_1
*CAP
1 *4546:A1 0.00022889
2 *4525:A2 0.000283057
3 *4567:B2 0.000313818
4 *4483:Y 0.00020879
5 *176:20 0.00118371
6 *176:10 0.00102452
7 *4525:A2 *4525:C1 5.83141e-05
8 *4525:A2 *4530:C1 5.55405e-05
9 *4525:A2 *4563:A_N 5.52302e-05
10 *4525:A2 *4593:D 2.59204e-05
11 *4525:A2 *190:12 0
12 *4525:A2 *227:65 0.000137443
13 *4546:A1 *180:8 0.000460858
14 *4546:A1 *180:25 3.34295e-05
15 *4546:A1 *244:116 0.00049258
16 *4567:B2 *4530:C1 0.000506907
17 *4567:B2 *4567:B1 2.89016e-05
18 *176:10 *4483:A 2.89016e-05
19 *176:10 *180:8 0.000658134
20 *176:10 *244:105 0.000344925
21 *176:10 *244:116 0.000309773
22 *176:20 *4497:A 2.59355e-05
23 *176:20 *4497:B 4.58194e-05
24 *176:20 *4564:C1 7.77652e-05
25 *176:20 *190:8 0.000361925
26 *4546:A3 *4546:A1 1.58163e-05
27 *4547:A3 *4546:A1 0
28 *4563:B *4525:A2 0.00010252
29 *4564:A2 *176:20 0.00100934
30 *4564:B1 *4525:A2 0
31 *65:32 *4567:B2 3.36025e-05
32 *112:20 *4525:A2 1.90936e-05
33 *148:12 *4567:B2 1.21258e-05
34 *148:101 *4567:B2 7.10822e-05
*RES
1 *4483:Y *176:10 22.6571 
2 *176:10 *176:20 24.4643 
3 *176:20 *4567:B2 21.675 
4 *176:20 *4525:A2 19.7821 
5 *176:10 *4546:A1 21.7821 
*END

*D_NET *177 0.000282993
*CONN
*I *4687:A I *D sky130_fd_sc_hd__buf_1
*I *4484:X O *D sky130_fd_sc_hd__xor2_1
*CAP
1 *4687:A 6.22596e-05
2 *4484:X 6.22596e-05
3 *4687:A *4484:B 0.000158474
4 *4687:A *4524:A2 0
5 *4687:A *229:6 0
*RES
1 *4484:X *4687:A 20.3857 
*END

*D_NET *178 0.0105709
*CONN
*I *4588:A3 I *D sky130_fd_sc_hd__a31o_1
*I *4543:A3 I *D sky130_fd_sc_hd__a31o_1
*I *4504:A1 I *D sky130_fd_sc_hd__o21ai_1
*I *4489:A3 I *D sky130_fd_sc_hd__a32o_1
*I *4485:Y O *D sky130_fd_sc_hd__nand2_2
*CAP
1 *4588:A3 0.000952204
2 *4543:A3 2.23854e-05
3 *4504:A1 0
4 *4489:A3 0.000449313
5 *4485:Y 0.00060968
6 *178:42 0.00159933
7 *178:16 0.000547123
8 *178:14 0.00133223
9 *4489:A3 *4509:B1 5.7599e-05
10 *4489:A3 *4566:B1 1.69115e-05
11 *4489:A3 *244:29 0.000134192
12 *4588:A3 *4588:A1 0
13 *4588:A3 *227:26 6.22596e-05
14 *4588:A3 *238:16 2.09897e-05
15 *4588:A3 *240:21 4.51691e-05
16 *178:14 *4561:A1 0.000783386
17 *178:14 *4566:B1 9.69119e-06
18 *178:16 *4566:B1 4.94362e-05
19 *178:42 *4566:B1 0.000140933
20 *178:42 *186:18 2.24763e-05
21 *4459:A *178:42 0.000218246
22 *4493:B *4588:A3 3.18676e-05
23 *4493:B *178:42 1.21289e-05
24 *4502:A1 *4489:A3 0.00010096
25 *4544:B *178:14 2.24079e-05
26 *4565:A1 *178:14 0.00037976
27 *4565:B2 *178:42 4.43256e-05
28 *4566:A1 *178:14 0
29 *4568:A3 *178:14 2.89114e-05
30 *4590:A1 *4588:A3 0
31 *147:12 *4588:A3 0.000143128
32 *147:14 *4588:A3 5.10822e-05
33 *148:48 *178:14 0.00125649
34 *152:6 *178:42 5.04705e-05
35 *158:86 *178:14 0.000320908
36 *160:22 *4489:A3 5.97623e-05
37 *168:18 *4588:A3 0.000438794
38 *169:16 *4489:A3 0.000353086
39 *169:22 *4489:A3 0
40 *169:22 *178:14 0
41 *169:22 *178:16 0
42 *173:47 *4588:A3 0.000203286
*RES
1 *4485:Y *178:14 33.7286 
2 *178:14 *178:16 1.94643 
3 *178:16 *4489:A3 24.4429 
4 *178:16 *4504:A1 13.8 
5 *178:14 *178:42 13.2679 
6 *178:42 *4543:A3 9.72857 
7 *178:42 *4588:A3 36.175 
*END

*D_NET *179 0.0246268
*CONN
*I *4488:B I *D sky130_fd_sc_hd__nor2_1
*I *4533:B1 I *D sky130_fd_sc_hd__a21o_1
*I *4568:B1 I *D sky130_fd_sc_hd__a31o_1
*I *4561:A1 I *D sky130_fd_sc_hd__a221o_1
*I *4565:A2 I *D sky130_fd_sc_hd__a221o_1
*I *4501:A2 I *D sky130_fd_sc_hd__o221a_1
*I *4556:A3 I *D sky130_fd_sc_hd__o32a_1
*I *4537:A2 I *D sky130_fd_sc_hd__a211o_1
*I *4486:X O *D sky130_fd_sc_hd__and2b_4
*CAP
1 *4488:B 0.00100331
2 *4533:B1 0.000550486
3 *4568:B1 0
4 *4561:A1 0.000430329
5 *4565:A2 0.000340274
6 *4501:A2 0.000146236
7 *4556:A3 0.000667148
8 *4537:A2 0
9 *4486:X 8.95929e-05
10 *179:99 0.000684422
11 *179:78 0.000724267
12 *179:63 0.000855362
13 *179:59 0.00159513
14 *179:42 0.000796059
15 *179:12 0.000795226
16 *179:6 0.000630759
17 *4488:B *4509:A2 4.22908e-05
18 *4488:B *184:23 0.000167436
19 *4501:A2 *4501:B2 4.88637e-05
20 *4501:A2 *4571:B2 5.52238e-05
21 *4501:A2 *180:59 9.99644e-06
22 *4501:A2 *193:28 5.52302e-05
23 *4533:B1 *185:68 0
24 *4533:B1 *196:27 0
25 *4533:B1 *222:39 0.00021528
26 *4533:B1 *231:12 0.000100823
27 *4556:A3 *4513:A2 0.000312898
28 *4556:A3 *4528:B1 0.000269422
29 *4556:A3 *4538:A1 0.000197977
30 *4556:A3 *4538:A2 1.81805e-05
31 *4556:A3 *4556:B1 6.77471e-05
32 *4556:A3 *4556:B2 1.97756e-05
33 *4556:A3 *180:50 8.71761e-05
34 *4556:A3 *191:12 7.13281e-05
35 *4556:A3 *223:14 0.000301438
36 *4556:A3 *244:35 5.33005e-05
37 *4561:A1 *196:16 2.39435e-05
38 *4561:A1 *222:65 0.000383295
39 *4565:A2 *4566:B1 0.000163737
40 *179:6 *192:29 0.000227539
41 *179:12 *244:35 3.17148e-05
42 *179:42 *4501:B2 5.52238e-05
43 *179:42 *4517:A2 0
44 *179:42 *4519:A1 2.44318e-05
45 *179:42 *4571:B2 1.19191e-05
46 *179:42 *192:29 0.00139613
47 *179:59 *4571:B2 9.92967e-05
48 *179:59 *184:23 0.000525394
49 *179:63 *4494:B1 0.000233101
50 *179:78 *4494:B1 4.78056e-05
51 *179:78 *185:49 0
52 *179:78 *228:28 0
53 *179:99 *4568:A2 2.39876e-05
54 *179:99 *185:49 0
55 *179:99 *185:68 0
56 *4481:A *179:99 0.00012401
57 *4495:A *179:59 0.000312215
58 *4495:A *179:63 0.000290986
59 *4500:B *179:42 7.55769e-05
60 *4500:B *179:59 0.000188958
61 *4513:C1 *4556:A3 0.000126446
62 *4518:A1 *179:42 3.57366e-05
63 *4518:B1 *179:63 0.000478005
64 *4525:A1 *4556:A3 8.25843e-06
65 *4530:B1 *4556:A3 6.5185e-05
66 *4534:B1 *4533:B1 4.72818e-05
67 *4535:A *4556:A3 0
68 *4538:B2 *4556:A3 0.000167275
69 *4539:A2 *4556:A3 0.0006647
70 *4549:B1 *4533:B1 0.000313241
71 *4556:A1 *179:12 7.50697e-05
72 *4561:A2 *4561:A1 3.99614e-06
73 *4565:B1 *4565:A2 0
74 *4566:A2 *4565:A2 0.000999533
75 *4566:A3 *4565:A2 3.47255e-05
76 *4573:A2 *4533:B1 0
77 *4573:B1 *4565:A2 0.000870018
78 *62:14 *4561:A1 0.000542984
79 *65:8 *179:12 1.69115e-05
80 *65:32 *4556:A3 2.84976e-05
81 *148:42 *179:63 0.000632135
82 *148:42 *179:78 0.0003042
83 *148:42 *179:99 4.56437e-05
84 *151:32 *179:6 0.000108535
85 *151:42 *179:6 9.90367e-05
86 *151:42 *179:42 0.00165852
87 *158:86 *4561:A1 0.000785316
88 *169:22 *4561:A1 0
89 *175:48 *179:42 7.77652e-05
90 *175:56 *179:12 0
91 *175:56 *179:42 1.21289e-05
92 *178:14 *4561:A1 0.000783386
*RES
1 *4486:X *179:6 12.3 
2 *179:6 *179:12 11.5536 
3 *179:12 *4537:A2 9.3 
4 *179:12 *4556:A3 38.8179 
5 *179:6 *179:42 23.2143 
6 *179:42 *4501:A2 16.4071 
7 *179:42 *179:59 12.1071 
8 *179:59 *179:63 16.7679 
9 *179:63 *4565:A2 26.1839 
10 *179:63 *179:78 4.07143 
11 *179:78 *4561:A1 38.3893 
12 *179:78 *179:99 2.85714 
13 *179:99 *4568:B1 13.8 
14 *179:99 *4533:B1 25.3357 
15 *179:59 *4488:B 25.6036 
*END

*D_NET *180 0.0290467
*CONN
*I *4527:B I *D sky130_fd_sc_hd__nand2_1
*I *4582:B I *D sky130_fd_sc_hd__nor2_1
*I *4553:A3 I *D sky130_fd_sc_hd__a311o_1
*I *4551:C I *D sky130_fd_sc_hd__and4_1
*I *4528:A2 I *D sky130_fd_sc_hd__a21o_1
*I *4536:A2 I *D sky130_fd_sc_hd__a31oi_1
*I *4550:B I *D sky130_fd_sc_hd__and3_4
*I *4546:A2 I *D sky130_fd_sc_hd__a31o_1
*I *4487:Y O *D sky130_fd_sc_hd__nand2b_4
*CAP
1 *4527:B 0.000426767
2 *4582:B 0.000604611
3 *4553:A3 3.64749e-05
4 *4551:C 0.000109954
5 *4528:A2 5.23239e-05
6 *4536:A2 0.000329755
7 *4550:B 0
8 *4546:A2 3.45135e-05
9 *4487:Y 0.0021573
10 *180:65 0.000146429
11 *180:63 0.00176056
12 *180:59 0.00437877
13 *180:50 0.00432835
14 *180:25 0.000776407
15 *180:8 0.00115849
16 *4528:A2 *4528:B1 3.99614e-06
17 *4536:A2 *4550:A 0.00038081
18 *4536:A2 *227:65 4.46186e-06
19 *4536:A2 *231:39 0.000928001
20 *180:8 *4557:C 0.000419606
21 *180:8 *223:67 0
22 *180:8 *224:40 0
23 *180:8 *237:24 0.000320738
24 *180:8 *244:94 0.000120636
25 *180:8 *244:105 2.14474e-05
26 *180:25 *231:39 7.92229e-06
27 *180:25 *244:116 9.97744e-05
28 *180:50 *4455:A 8.70693e-05
29 *180:50 *4499:A2 1.03968e-05
30 *180:50 *4528:B1 2.65105e-05
31 *180:50 *4584:A0 0.000100062
32 *180:50 *192:23 0.00108158
33 *180:50 *223:67 1.74352e-05
34 *180:50 *224:40 9.31893e-05
35 *180:50 *244:35 4.43256e-05
36 *180:59 *4501:B2 0.000117621
37 *180:59 *4510:A2 0.00114364
38 *180:59 *4518:C1 1.58163e-05
39 *180:59 *185:10 0.000464205
40 *180:59 *193:21 2.65105e-05
41 *180:59 *239:14 1.56e-05
42 *180:63 *4480:A 0
43 *180:63 *230:10 0
44 *180:63 *230:14 0
45 *4477:B *4582:B 0
46 *4493:A *4551:C 2.89114e-05
47 *4500:B *4528:A2 0
48 *4500:B *180:59 0.000833995
49 *4501:A2 *180:59 9.99644e-06
50 *4505:A1 *4527:B 5.59013e-05
51 *4505:A2 *180:63 0.000220448
52 *4529:A *4536:A2 0
53 *4543:B1 *180:63 0
54 *4546:A1 *180:8 0.000460858
55 *4546:A1 *180:25 3.34295e-05
56 *4546:B1 *180:8 4.1331e-06
57 *4546:B1 *180:25 5.56436e-05
58 *4550:C *180:25 0.000349059
59 *4551:A *4551:C 0.000248788
60 *4551:A *4553:A3 4.36196e-05
61 *4553:B1 *4553:A3 0
62 *4554:B *4551:C 4.88546e-05
63 *4556:A3 *180:50 8.71761e-05
64 *4560:B1 *4536:A2 4.98055e-06
65 *4560:C1 *4536:A2 0.00020212
66 *4582:A *4582:B 0.000314139
67 *4583:A0 *4582:B 1.58163e-05
68 *4591:A2 *4582:B 0.000186641
69 *4591:A2 *180:63 0.00038602
70 *90:12 *180:25 0.000181796
71 *99:12 *4536:A2 5.58175e-05
72 *99:12 *180:25 0.000143375
73 *155:20 *4527:B 0.00044468
74 *155:20 *180:59 0.000724545
75 *155:30 *180:59 0.000134025
76 *158:43 *4553:A3 0
77 *165:14 *4551:C 0.000290216
78 *165:14 *4553:A3 5.13964e-05
79 *173:10 *180:63 0.000184583
80 *173:30 *180:63 0.000301064
81 *173:47 *180:63 0.000235092
82 *175:12 *4527:B 7.71225e-05
83 *175:48 *4527:B 0
84 *175:48 *180:63 0.000122279
85 *176:10 *180:8 0.000658134
*RES
1 *4487:Y *180:8 33.6571 
2 *180:8 *4546:A2 14.3357 
3 *180:8 *180:25 14.6786 
4 *180:25 *4550:B 9.3 
5 *180:25 *4536:A2 31.7286 
6 *4487:Y *180:50 29.9607 
7 *180:50 *4528:A2 10.3357 
8 *180:50 *180:59 40.375 
9 *180:59 *180:63 29.8214 
10 *180:63 *180:65 4.5 
11 *180:65 *4551:C 14.7643 
12 *180:65 *4553:A3 10.6571 
13 *180:63 *4582:B 25.1929 
14 *180:59 *4527:B 25.6929 
*END

*D_NET *181 0.00130548
*CONN
*I *4508:A1 I *D sky130_fd_sc_hd__o22a_1
*I *4489:B1 I *D sky130_fd_sc_hd__a32o_1
*I *4488:Y O *D sky130_fd_sc_hd__nor2_1
*CAP
1 *4508:A1 0.000226203
2 *4489:B1 0.000124188
3 *4488:Y 6.19224e-05
4 *181:6 0.000412314
5 *4489:B1 *4488:A 0.00020042
6 *4489:B1 *4508:B1 0
7 *4489:B1 *230:44 1.02504e-05
8 *4489:B1 *244:29 1.1671e-05
9 *4508:A1 *4508:A2 5.71472e-05
10 *4508:A1 *4509:A2 7.32955e-05
11 *181:6 *4488:A 5.52238e-05
12 *181:6 *4509:A2 4.88637e-05
13 *4489:A2 *4489:B1 2.39852e-05
14 *158:64 *4489:B1 0
*RES
1 *4488:Y *181:6 10.6571 
2 *181:6 *4489:B1 21.0946 
3 *181:6 *4508:A1 13.675 
*END

*D_NET *182 0.000536839
*CONN
*I *4502:A2 I *D sky130_fd_sc_hd__o21ai_1
*I *4489:X O *D sky130_fd_sc_hd__a32o_1
*CAP
1 *4502:A2 0.000155163
2 *4489:X 0.000155163
3 *4502:A2 *244:29 0.000226513
*RES
1 *4489:X *4502:A2 20.7786 
*END

*D_NET *183 0.0077348
*CONN
*I *4577:B I *D sky130_fd_sc_hd__or2_1
*I *4491:B I *D sky130_fd_sc_hd__or2_4
*I *4516:B I *D sky130_fd_sc_hd__or4b_1
*I *4490:X O *D sky130_fd_sc_hd__and2b_4
*CAP
1 *4577:B 2.96588e-05
2 *4491:B 0.00010798
3 *4516:B 0.000112171
4 *4490:X 0.000171005
5 *183:18 0.00124998
6 *183:12 0.00123049
7 *4491:B *185:40 6.94775e-05
8 *183:12 *4490:A_N 0.000100823
9 *183:12 *243:16 5.41794e-05
10 *183:12 *243:18 7.6644e-05
11 *183:18 *243:46 0.000469387
12 *183:18 *244:10 9.90367e-05
13 *4586:B1 *183:12 8.27532e-05
14 *4586:B1 *183:18 0.000230482
15 *4638:A *183:18 9.90431e-05
16 *62:14 *4491:B 0
17 *130:34 *4516:B 3.55552e-05
18 *130:34 *4577:B 7.13624e-05
19 *130:34 *183:12 2.6269e-05
20 *130:34 *183:18 0.00186121
21 *155:65 *183:12 0
22 *160:22 *183:18 0.0015573
*RES
1 *4490:X *183:12 22.1036 
2 *183:12 *183:18 35.4821 
3 *183:18 *4516:B 10.6571 
4 *183:18 *4491:B 20.2464 
5 *183:12 *4577:B 10.4429 
*END

*D_NET *184 0.00481702
*CONN
*I *4530:A1 I *D sky130_fd_sc_hd__o211a_1
*I *4538:A1 I *D sky130_fd_sc_hd__a32o_1
*I *4494:A2 I *D sky130_fd_sc_hd__o221a_1
*I *4491:X O *D sky130_fd_sc_hd__or2_4
*CAP
1 *4530:A1 1.99857e-05
2 *4538:A1 0.000159077
3 *4494:A2 0.000116586
4 *4491:X 0.000217121
5 *184:23 0.000929057
6 *184:10 0.0010837
7 *4494:A2 *4494:B1 0.000102058
8 *4494:A2 *185:23 0
9 *4530:A1 *4530:A2 1.04232e-05
10 *4538:A1 *4530:A2 2.89016e-05
11 *4538:A1 *4538:A2 1.02504e-05
12 *184:10 *4491:A 5.71472e-05
13 *184:10 *4494:B1 0.000173649
14 *184:10 *4538:A2 9.90431e-05
15 *184:10 *185:23 0
16 *184:23 *4530:A2 0.000721063
17 *184:23 *188:6 5.03772e-05
18 *4488:B *184:23 0.000167436
19 *4494:A1 *4494:A2 4.6025e-06
20 *4531:A2 *184:23 5.62995e-05
21 *4535:A *4538:A1 6.53968e-05
22 *4556:A3 *4538:A1 0.000197977
23 *4571:B1 *184:10 2.14757e-05
24 *179:59 *184:23 0.000525394
*RES
1 *4491:X *184:10 19.1214 
2 *184:10 *4494:A2 16.3536 
3 *184:10 *184:23 22.6964 
4 *184:23 *4538:A1 22.2107 
5 *184:23 *4530:A1 9.72857 
*END

*D_NET *185 0.0169892
*CONN
*I *4551:D I *D sky130_fd_sc_hd__and4_1
*I *4503:B I *D sky130_fd_sc_hd__nand2_4
*I *4552:A1 I *D sky130_fd_sc_hd__a31o_1
*I *4569:B2 I *D sky130_fd_sc_hd__a2bb2o_1
*I *4516:D_N I *D sky130_fd_sc_hd__or4b_1
*I *4538:A2 I *D sky130_fd_sc_hd__a32o_1
*I *4494:C1 I *D sky130_fd_sc_hd__o221a_1
*I *4492:X O *D sky130_fd_sc_hd__and2b_4
*CAP
1 *4551:D 0
2 *4503:B 0.000184422
3 *4552:A1 7.04256e-05
4 *4569:B2 0.00031059
5 *4516:D_N 0
6 *4538:A2 0.00158039
7 *4494:C1 0.000259504
8 *4492:X 0.000316216
9 *185:81 0.00047568
10 *185:68 0.00112066
11 *185:49 0.00174817
12 *185:40 0.000855412
13 *185:23 0.002126
14 *185:10 0.000944518
15 *4494:C1 *4510:A1 9.90367e-05
16 *4494:C1 *4510:A2 0.000123588
17 *4503:B *196:6 0.000230482
18 *4538:A2 *4491:A 9.47613e-05
19 *4569:B2 *4568:A1 3.98517e-05
20 *4569:B2 *4569:A2_N 0.000137983
21 *4569:B2 *227:57 0.000253315
22 *185:10 *4510:A1 0.000537171
23 *185:10 *4510:A2 0.000582901
24 *185:10 *4510:B1 0.000276211
25 *185:40 *4494:B1 0
26 *185:49 *4517:A1 0
27 *185:49 *222:39 0
28 *185:49 *228:28 0
29 *185:68 *222:39 0
30 *185:68 *231:12 0
31 *4481:A *4569:B2 0.000260574
32 *4491:B *185:40 6.94775e-05
33 *4493:A *4503:B 9.25014e-06
34 *4494:A1 *185:10 0
35 *4494:A2 *185:23 0
36 *4515:B *185:49 9.47299e-05
37 *4518:B1 *185:40 3.20153e-05
38 *4533:B1 *185:68 0
39 *4535:A *4538:A2 6.09476e-05
40 *4538:A1 *4538:A2 1.02504e-05
41 *4539:A2 *4538:A2 7.83659e-05
42 *4549:A2 *4552:A1 0
43 *4552:B1 *185:81 1.21289e-05
44 *4554:B *185:81 0.000110362
45 *4555:B1 *185:68 1.77179e-05
46 *4555:C1 *185:68 0.000238981
47 *4555:C1 *185:81 0.000174232
48 *4556:A3 *4538:A2 1.81805e-05
49 *4561:B1 *185:68 0.000352053
50 *4571:B1 *4538:A2 6.22596e-05
51 *62:14 *185:23 0
52 *62:14 *185:40 0
53 *62:14 *185:49 0
54 *65:40 *185:40 4.1331e-06
55 *65:40 *185:49 7.59437e-05
56 *99:37 *185:68 0.000290699
57 *148:23 *4538:A2 0.00177933
58 *155:20 *185:10 0.000188586
59 *155:30 *185:10 0.000118413
60 *179:78 *185:49 0
61 *179:99 *185:49 0
62 *179:99 *185:68 0
63 *180:59 *185:10 0.000464205
64 *184:10 *4538:A2 9.90431e-05
65 *184:10 *185:23 0
*RES
1 *4492:X *185:10 27.8 
2 *185:10 *4494:C1 18.4607 
3 *185:10 *185:23 6.19643 
4 *185:23 *4538:A2 45.925 
5 *185:23 *185:40 3.46429 
6 *185:40 *4516:D_N 13.8 
7 *185:40 *185:49 11.6607 
8 *185:49 *4569:B2 20.9071 
9 *185:49 *185:68 18.9107 
10 *185:68 *4552:A1 19.3357 
11 *185:68 *185:81 4.23214 
12 *185:81 *4503:B 22.1214 
13 *185:81 *4551:D 9.3 
*END

*D_NET *186 0.0128054
*CONN
*I *4494:B1 I *D sky130_fd_sc_hd__o221a_1
*I *4563:A_N I *D sky130_fd_sc_hd__nand2b_1
*I *4556:B1 I *D sky130_fd_sc_hd__o32a_1
*I *4513:A2 I *D sky130_fd_sc_hd__a311o_1
*I *4493:Y O *D sky130_fd_sc_hd__nand2_2
*CAP
1 *4494:B1 0.000559243
2 *4563:A_N 0.000299683
3 *4556:B1 9.13483e-05
4 *4513:A2 0.00014084
5 *4493:Y 0.00088709
6 *186:24 0.000282978
7 *186:22 0.00204795
8 *186:18 0.00314381
9 *4494:B1 *4491:A 7.00299e-05
10 *4494:B1 *228:28 5.12344e-05
11 *4494:B1 *228:30 0.000105651
12 *4556:B1 *4556:B2 1.8493e-05
13 *186:18 *218:8 1.34703e-05
14 *186:18 *222:12 0.000110162
15 *186:18 *227:26 0.000315158
16 *186:18 *228:28 4.43256e-05
17 *186:18 *236:12 0.00012401
18 *186:22 *4525:C1 1.24368e-05
19 *186:22 *4593:D 4.46231e-06
20 *186:22 *218:8 2.575e-05
21 *4459:A *186:18 7.61932e-05
22 *4494:A2 *4494:B1 0.000102058
23 *4509:A1 *186:18 0.000100823
24 *4515:B *186:18 0.000410271
25 *4518:B1 *4494:B1 0.000688841
26 *4525:A1 *4556:B1 0.000136951
27 *4525:A2 *4563:A_N 5.52302e-05
28 *4525:B1 *4513:A2 0.000165228
29 *4525:B1 *4563:A_N 3.22681e-05
30 *4525:B1 *186:24 8.94221e-05
31 *4539:A2 *4513:A2 3.074e-05
32 *4539:A2 *4563:A_N 1.83776e-05
33 *4539:A2 *186:24 4.61329e-05
34 *4556:A3 *4513:A2 0.000312898
35 *4556:A3 *4556:B1 6.77471e-05
36 *4560:A2 *4563:A_N 2.04825e-05
37 *4563:B *4563:A_N 5.33005e-05
38 *4566:A1 *186:18 0.000479645
39 *4572:A1 *186:22 0.00018372
40 *4572:A2 *186:22 1.00073e-05
41 *4572:B1 *186:22 3.18676e-05
42 *4573:A1 *186:22 9.71197e-05
43 *4573:A2 *186:22 1.98839e-05
44 *65:32 *4513:A2 0.000221678
45 *66:8 *186:18 0.000284018
46 *112:20 *4563:A_N 0.000115587
47 *152:6 *186:18 9.80173e-05
48 *154:47 *186:18 3.17148e-05
49 *178:42 *186:18 2.24763e-05
50 *179:63 *4494:B1 0.000233101
51 *179:78 *4494:B1 4.78056e-05
52 *184:10 *4494:B1 0.000173649
53 *185:40 *4494:B1 0
*RES
1 *4493:Y *186:18 37.5857 
2 *186:18 *186:22 23.9286 
3 *186:22 *186:24 1.33929 
4 *186:24 *4513:A2 18.7821 
5 *186:24 *4556:B1 16.2643 
6 *186:22 *4563:A_N 22.5643 
7 *186:18 *4494:B1 34.5143 
*END

*D_NET *187 0.00111155
*CONN
*I *4510:A1 I *D sky130_fd_sc_hd__o31a_1
*I *4494:X O *D sky130_fd_sc_hd__o221a_1
*CAP
1 *4510:A1 0.000172872
2 *4494:X 0.000172872
3 *4510:A1 *4510:A2 4.88637e-05
4 *4494:C1 *4510:A1 9.90367e-05
5 *62:8 *4510:A1 8.07313e-05
6 *185:10 *4510:A1 0.000537171
*RES
1 *4494:X *4510:A1 24.475 
*END

*D_NET *188 0.00269466
*CONN
*I *4501:B1 I *D sky130_fd_sc_hd__o221a_1
*I *4530:A2 I *D sky130_fd_sc_hd__o211a_1
*I *4495:Y O *D sky130_fd_sc_hd__nor2_1
*CAP
1 *4501:B1 6.4023e-05
2 *4530:A2 0.000717624
3 *4495:Y 5.02142e-05
4 *188:6 0.000831862
5 *4501:B1 *4517:A2 7.38526e-05
6 *4501:B1 *4571:B2 0.000146316
7 *4530:A1 *4530:A2 1.04232e-05
8 *4538:A1 *4530:A2 2.89016e-05
9 *184:23 *4530:A2 0.000721063
10 *184:23 *188:6 5.03772e-05
*RES
1 *4495:Y *188:6 10.2464 
2 *188:6 *4530:A2 22.9964 
3 *188:6 *4501:B1 20.2464 
*END

*D_NET *189 0.00426202
*CONN
*I *4576:A2 I *D sky130_fd_sc_hd__a31o_1
*I *4574:B I *D sky130_fd_sc_hd__nor2_1
*I *4570:A1 I *D sky130_fd_sc_hd__a22o_1
*I *4507:B1 I *D sky130_fd_sc_hd__o22a_1
*I *4496:Y O *D sky130_fd_sc_hd__nand2_2
*CAP
1 *4576:A2 4.28134e-05
2 *4574:B 1.99857e-05
3 *4570:A1 0
4 *4507:B1 9.83512e-05
5 *4496:Y 0
6 *189:34 0.000694731
7 *189:14 0.000249296
8 *189:4 0.000782877
9 *4507:B1 *4507:B2 1.04232e-05
10 *4507:B1 *4542:A2 3.18676e-05
11 *4507:B1 *199:16 0.000144951
12 *4507:B1 *244:25 1.74352e-05
13 *4574:B *199:56 1.04232e-05
14 *4576:A2 *199:56 0.000123469
15 *4576:A2 *234:18 1.74352e-05
16 *189:14 *4570:B2 0.000123295
17 *189:14 *199:12 3.0285e-05
18 *189:14 *230:68 6.55276e-05
19 *189:14 *244:25 2.95726e-05
20 *189:34 *4506:A 0.000272371
21 *189:34 *199:56 0.000100824
22 *189:34 *230:68 1.24368e-05
23 *4490:B *4574:B 0
24 *4490:B *189:14 5.33005e-05
25 *4490:B *189:34 0.000797299
26 *4581:A3 *4576:A2 7.61932e-05
27 *118:10 *189:14 0
28 *147:22 *189:34 5.7661e-06
29 *169:16 *4507:B1 0.000352053
30 *169:16 *189:14 9.90367e-05
*RES
1 *4496:Y *189:4 9.3 
2 *189:4 *189:14 12.7321 
3 *189:14 *4507:B1 13.1393 
4 *189:14 *4570:A1 9.3 
5 *189:4 *189:34 13.7143 
6 *189:34 *4574:B 9.72857 
7 *189:34 *4576:A2 11.0679 
*END

*D_NET *190 0.0078356
*CONN
*I *4564:A1 I *D sky130_fd_sc_hd__o211ai_1
*I *4541:B I *D sky130_fd_sc_hd__or3b_1
*I *4593:D I *D sky130_fd_sc_hd__or4_1
*I *4497:Y O *D sky130_fd_sc_hd__nor2_1
*CAP
1 *4564:A1 0
2 *4541:B 0.000802562
3 *4593:D 0.000922653
4 *4497:Y 0.000540919
5 *190:12 0.00188733
6 *190:8 0.000703033
7 *4541:B *227:65 0
8 *4593:D *4535:B 0.000196554
9 *190:8 *4497:B 9.41642e-05
10 *190:12 *227:65 0
11 *4525:A2 *4593:D 2.59204e-05
12 *4525:A2 *190:12 0
13 *4535:A *4593:D 0
14 *4539:A2 *4593:D 0.000454826
15 *4546:A3 *4541:B 9.41642e-05
16 *4547:A3 *4541:B 3.29807e-05
17 *4559:A2 *4541:B 2.28598e-05
18 *4563:B *4593:D 0.000659487
19 *4564:B1 *4593:D 4.0552e-05
20 *4564:B1 *190:12 4.48206e-05
21 *4593:A *4593:D 0.000326686
22 *99:37 *4593:D 0.000126446
23 *158:104 *4541:B 0.000277342
24 *160:68 *4593:D 0.000215912
25 *176:20 *190:8 0.000361925
26 *186:22 *4593:D 4.46231e-06
*RES
1 *4497:Y *190:8 19.7107 
2 *190:8 *190:12 7.35714 
3 *190:12 *4593:D 44.7643 
4 *190:12 *4541:B 24.7107 
5 *190:8 *4564:A1 9.3 
*END

*D_NET *191 0.00790358
*CONN
*I *4538:A3 I *D sky130_fd_sc_hd__a32o_1
*I *4535:B I *D sky130_fd_sc_hd__nand2_1
*I *4512:A2 I *D sky130_fd_sc_hd__a21oi_1
*I *4513:A3 I *D sky130_fd_sc_hd__a311o_1
*I *4498:X O *D sky130_fd_sc_hd__or2_4
*CAP
1 *4538:A3 0.00011472
2 *4535:B 0.00104313
3 *4512:A2 0.000278141
4 *4513:A3 9.66604e-05
5 *4498:X 0.000305474
6 *191:25 0.00138789
7 *191:12 0.000342162
8 *191:8 0.000599079
9 *4512:A2 *223:14 5.97401e-05
10 *4512:A2 *224:12 0.000137983
11 *4512:A2 *228:70 2.51343e-06
12 *4535:B *4556:B2 0.000145315
13 *4538:A3 *4538:B1 9.11607e-05
14 *4538:A3 *244:29 0.000207082
15 *191:8 *4498:A 9.90367e-05
16 *191:8 *223:14 0.000216755
17 *191:8 *244:29 3.14193e-05
18 *191:12 *4556:B2 0.000173909
19 *191:25 *4556:B2 5.38011e-05
20 *4513:A1 *4513:A3 1.58163e-05
21 *4513:B1 *191:12 2.06178e-05
22 *4513:B1 *191:25 2.31879e-05
23 *4513:C1 *4513:A3 9.41642e-05
24 *4525:A1 *4535:B 0.000122814
25 *4525:B1 *4535:B 0.000292285
26 *4529:C *4535:B 0
27 *4535:A *4535:B 0
28 *4539:A2 *4535:B 0
29 *4547:A2 *4535:B 0.000141046
30 *4547:A3 *4535:B 1.69208e-05
31 *4548:B1 *4535:B 0.000720691
32 *4556:A1 *4512:A2 0.000124655
33 *4556:A3 *191:12 7.13281e-05
34 *4560:A2 *4535:B 0
35 *4563:B *4535:B 0.000196506
36 *4593:D *4535:B 0.000196554
37 *65:32 *4535:B 0.000130583
38 *65:32 *191:12 0.000146312
39 *65:32 *191:25 0.000144353
40 *99:37 *4535:B 5.97719e-05
*RES
1 *4498:X *191:8 14.3714 
2 *191:8 *191:12 9.17857 
3 *191:12 *4513:A3 15.5857 
4 *191:12 *191:25 1.94643 
5 *191:25 *4512:A2 27.0321 
6 *191:25 *4535:B 39.2821 
7 *191:8 *4538:A3 12.8714 
*END

*D_NET *192 0.0105761
*CONN
*I *4567:B1 I *D sky130_fd_sc_hd__o32a_1
*I *4501:B2 I *D sky130_fd_sc_hd__o221a_1
*I *4519:B1 I *D sky130_fd_sc_hd__a21o_1
*I *4584:A0 I *D sky130_fd_sc_hd__mux2_4
*I *4499:Y O *D sky130_fd_sc_hd__o21ai_2
*CAP
1 *4567:B1 0.00025798
2 *4501:B2 0.000201894
3 *4519:B1 0
4 *4584:A0 0.000695327
5 *4499:Y 0
6 *192:29 0.000662618
7 *192:23 0.000874333
8 *192:4 0.000850956
9 *4501:B2 *4519:A1 0.000140554
10 *4501:B2 *4571:B2 4.38128e-05
11 *4501:B2 *193:21 4.13595e-05
12 *4501:B2 *193:28 0.000182694
13 *4567:B1 *4530:C1 0.000389854
14 *4567:B1 *223:25 0.000415462
15 *4567:B1 *223:27 2.24646e-05
16 *4584:A0 *4499:A1 5.65955e-05
17 *4584:A0 *4631:A 0.000107503
18 *4584:A0 *223:82 6.05161e-06
19 *4584:A0 *224:40 2.75938e-05
20 *192:23 *4455:A 2.6269e-05
21 *192:23 *4499:A1 0.00105547
22 *192:29 *4519:A1 5.52302e-05
23 *192:29 *223:27 0.000170654
24 *4500:B *4501:B2 0.000181796
25 *4501:A2 *4501:B2 4.88637e-05
26 *4520:B *4501:B2 0.000123288
27 *4567:B2 *4567:B1 2.89016e-05
28 *4584:S *4584:A0 7.32272e-05
29 *65:8 *4567:B1 2.61337e-05
30 *65:8 *192:29 8.359e-05
31 *65:19 *4567:B1 8.21706e-05
32 *148:8 *4567:B1 0
33 *148:12 *4567:B1 5.52238e-05
34 *148:101 *4567:B1 0
35 *151:32 *4584:A0 9.99989e-05
36 *175:56 *192:29 0.000510112
37 *179:6 *192:29 0.000227539
38 *179:42 *4501:B2 5.52238e-05
39 *179:42 *192:29 0.00139613
40 *180:50 *4584:A0 0.000100062
41 *180:50 *192:23 0.00108158
42 *180:59 *4501:B2 0.000117621
*RES
1 *4499:Y *192:4 9.3 
2 *192:4 *4584:A0 31.5679 
3 *192:4 *192:23 14.8929 
4 *192:23 *192:29 22.0714 
5 *192:29 *4519:B1 9.3 
6 *192:29 *4501:B2 25.2107 
7 *192:23 *4567:B1 22.05 
*END

*D_NET *193 0.00427642
*CONN
*I *4571:B2 I *D sky130_fd_sc_hd__a2bb2o_1
*I *4501:C1 I *D sky130_fd_sc_hd__o221a_1
*I *4520:A I *D sky130_fd_sc_hd__nand3_1
*I *4538:B1 I *D sky130_fd_sc_hd__a32o_1
*I *4500:Y O *D sky130_fd_sc_hd__nor2_2
*CAP
1 *4571:B2 0.000248266
2 *4501:C1 0
3 *4520:A 0
4 *4538:B1 0.000431099
5 *4500:Y 0
6 *193:28 0.000313468
7 *193:21 0.000497436
8 *193:4 0.000863333
9 *4538:B1 *244:29 0.000107977
10 *4571:B2 *4517:A2 0.000113286
11 *4495:A *4571:B2 4.15914e-05
12 *4500:B *4571:B2 0.000170176
13 *4500:B *193:21 0.000217658
14 *4501:A2 *4571:B2 5.52238e-05
15 *4501:A2 *193:28 5.52302e-05
16 *4501:B1 *4571:B2 0.000146316
17 *4501:B2 *4571:B2 4.38128e-05
18 *4501:B2 *193:21 4.13595e-05
19 *4501:B2 *193:28 0.000182694
20 *4520:C *193:21 9.60939e-05
21 *4526:A *4538:B1 0.0001381
22 *4531:A2 *4538:B1 0
23 *4535:A *4538:B1 0
24 *4538:A3 *4538:B1 9.11607e-05
25 *4539:A2 *4538:B1 0.00018077
26 *155:30 *193:21 0.000103646
27 *179:42 *4571:B2 1.19191e-05
28 *179:59 *4571:B2 9.92967e-05
29 *180:59 *193:21 2.65105e-05
*RES
1 *4500:Y *193:4 9.3 
2 *193:4 *4538:B1 27.6304 
3 *193:4 *193:21 8.35714 
4 *193:21 *4520:A 9.3 
5 *193:21 *193:28 1.76786 
6 *193:28 *4501:C1 9.3 
7 *193:28 *4571:B2 25.9429 
*END

*D_NET *194 0.00242395
*CONN
*I *4510:A2 I *D sky130_fd_sc_hd__o31a_1
*I *4501:X O *D sky130_fd_sc_hd__o221a_1
*CAP
1 *4510:A2 0.000200886
2 *4501:X 0.000200886
3 *4494:C1 *4510:A2 0.000123588
4 *4510:A1 *4510:A2 4.88637e-05
5 *155:30 *4510:A2 0.00012318
6 *180:59 *4510:A2 0.00114364
7 *185:10 *4510:A2 0.000582901
*RES
1 *4501:X *4510:A2 29.4036 
*END

*D_NET *195 0.00110579
*CONN
*I *4510:A3 I *D sky130_fd_sc_hd__o31a_1
*I *4502:Y O *D sky130_fd_sc_hd__o21ai_1
*CAP
1 *4510:A3 0.000415748
2 *4502:Y 0.000415748
3 *4510:A3 *4509:B1 0
4 *4510:A3 *4510:B1 0
5 *4510:A3 *244:29 0.000274294
6 *62:14 *4510:A3 0
*RES
1 *4502:Y *4510:A3 34.2607 
*END

*D_NET *196 0.0134471
*CONN
*I *4589:A3 I *D sky130_fd_sc_hd__o31a_1
*I *4522:B I *D sky130_fd_sc_hd__nor2_1
*I *4569:A2_N I *D sky130_fd_sc_hd__a2bb2o_1
*I *4504:A2 I *D sky130_fd_sc_hd__o21ai_1
*I *4517:A3 I *D sky130_fd_sc_hd__o31a_1
*I *4523:D I *D sky130_fd_sc_hd__or4_1
*I *4503:Y O *D sky130_fd_sc_hd__nand2_4
*CAP
1 *4589:A3 0.000477432
2 *4522:B 1.53808e-05
3 *4569:A2_N 8.4114e-05
4 *4504:A2 0.000585259
5 *4517:A3 0.000144853
6 *4523:D 9.03163e-05
7 *4503:Y 0
8 *196:33 0.00107469
9 *196:27 0.00062902
10 *196:16 0.000822873
11 *196:6 0.00102076
12 *196:4 0.000950583
13 *4517:A3 *4568:A2 1.46624e-05
14 *4517:A3 *4636:A 2.88517e-05
15 *4517:A3 *4656:A 0.000169939
16 *4569:A2_N *4485:B 8.27532e-05
17 *4569:A2_N *4568:A1 3.53079e-05
18 *4569:A2_N *4569:A1_N 5.71472e-05
19 *4589:A3 *4503:A 0.0001827
20 *4589:A3 *4589:A1 5.58941e-05
21 *4589:A3 *4666:A 0.000290455
22 *4589:A3 *228:14 0.000149489
23 *4589:A3 *233:6 1.21258e-05
24 *196:6 *228:14 0.000800072
25 *196:16 *228:14 7.43578e-06
26 *196:33 *4568:A2 0.000241584
27 *196:33 *4636:A 5.93879e-05
28 *4473:C *4589:A3 1.08359e-05
29 *4477:B *196:6 0.000177421
30 *4481:A *4569:A2_N 3.97677e-05
31 *4485:A *196:33 1.08359e-05
32 *4503:B *196:6 0.000230482
33 *4521:B1 *4517:A3 0
34 *4523:B *196:16 2.16819e-05
35 *4533:B1 *196:27 0
36 *4561:A1 *196:16 2.39435e-05
37 *4561:A2 *4522:B 1.04232e-05
38 *4561:A2 *196:6 2.44318e-05
39 *4561:A2 *196:16 0.000104539
40 *4561:B2 *196:16 2.03648e-05
41 *4568:A3 *196:27 9.25014e-06
42 *4568:A3 *196:33 0.000144038
43 *4569:B1 *4569:A2_N 5.52238e-05
44 *4569:B2 *4569:A2_N 0.000137983
45 *4573:A2 *196:27 0.00034913
46 *4573:A2 *196:33 0.000380844
47 *4589:B1 *4589:A3 1.02504e-05
48 *4628:A *4589:A3 5.52238e-05
49 *65:38 *4504:A2 0.000520522
50 *109:18 *4523:D 0.000183713
51 *109:18 *196:16 0.000753293
52 *150:27 *196:33 0.000109945
53 *158:62 *4589:A3 0.000263663
54 *160:22 *4589:A3 5.41797e-06
55 *165:10 *4589:A3 2.49484e-05
56 *165:36 *4589:A3 6.07232e-05
57 *168:30 *4504:A2 0.0015563
58 *169:43 *196:16 6.88464e-05
*RES
1 *4503:Y *196:4 9.3 
2 *196:4 *196:6 13.6786 
3 *196:6 *196:16 11.5 
4 *196:16 *4523:D 11.0679 
5 *196:16 *196:27 9.17857 
6 *196:27 *196:33 9.89286 
7 *196:33 *4517:A3 16.6571 
8 *196:33 *4504:A2 28.7107 
9 *196:27 *4569:A2_N 16.3893 
10 *196:6 *4522:B 9.72857 
11 *196:4 *4589:A3 30.7643 
*END

*D_NET *197 0.00260037
*CONN
*I *4566:B1 I *D sky130_fd_sc_hd__a31o_1
*I *4509:B1 I *D sky130_fd_sc_hd__a21o_1
*I *4504:Y O *D sky130_fd_sc_hd__o21ai_1
*CAP
1 *4566:B1 0.000272427
2 *4509:B1 0.000328651
3 *4504:Y 0
4 *197:6 0.000601078
5 *4489:A3 *4509:B1 5.7599e-05
6 *4489:A3 *4566:B1 1.69115e-05
7 *4502:A1 *4509:B1 0.000220441
8 *4509:A1 *4509:B1 0.000370165
9 *4509:A1 *4566:B1 0.000110844
10 *4510:A3 *4509:B1 0
11 *4565:A2 *4566:B1 0.000163737
12 *4565:B1 *4566:B1 1.68344e-05
13 *4565:B2 *4566:B1 1.6649e-05
14 *4566:A3 *4566:B1 0.00010096
15 *160:22 *4509:B1 0.00012401
16 *178:14 *4566:B1 9.69119e-06
17 *178:16 *4566:B1 4.94362e-05
18 *178:42 *4566:B1 0.000140933
*RES
1 *4504:Y *197:6 13.8 
2 *197:6 *4509:B1 23.0321 
3 *197:6 *4566:B1 20.6214 
*END

*D_NET *198 0.000439373
*CONN
*I *4508:A2 I *D sky130_fd_sc_hd__o22a_1
*I *4505:X O *D sky130_fd_sc_hd__a31o_1
*CAP
1 *4508:A2 0.000191113
2 *4505:X 0.000191113
3 *4508:A1 *4508:A2 5.71472e-05
*RES
1 *4505:X *4508:A2 22.0107 
*END

*D_NET *199 0.00589839
*CONN
*I *4576:A3 I *D sky130_fd_sc_hd__a31o_1
*I *4575:A I *D sky130_fd_sc_hd__nand2_1
*I *4570:A2 I *D sky130_fd_sc_hd__a22o_1
*I *4507:B2 I *D sky130_fd_sc_hd__o22a_1
*I *4542:A2 I *D sky130_fd_sc_hd__o211a_1
*I *4506:Y O *D sky130_fd_sc_hd__nor2_2
*CAP
1 *4576:A3 0
2 *4575:A 0.000100263
3 *4570:A2 0
4 *4507:B2 1.99857e-05
5 *4542:A2 0.000369214
6 *4506:Y 0.000933877
7 *199:56 0.000426165
8 *199:16 0.000456275
9 *199:12 0.00067505
10 *4542:A2 *236:25 1.02504e-05
11 *4542:A2 *238:24 0.000378429
12 *4542:A2 *244:25 0.000232399
13 *199:12 *4496:B 6.05161e-06
14 *199:12 *4506:B 8.76257e-05
15 *199:12 *4570:B2 0
16 *199:12 *230:81 0.000528337
17 *199:16 *244:25 0.000256992
18 *199:56 *4576:A1 0
19 *199:56 *234:18 0.00018877
20 *4490:B *199:12 4.27338e-05
21 *4490:B *199:56 0.000305175
22 *4507:B1 *4507:B2 1.04232e-05
23 *4507:B1 *4542:A2 3.18676e-05
24 *4507:B1 *199:16 0.000144951
25 *4570:B1 *199:12 5.80706e-06
26 *4574:B *199:56 1.04232e-05
27 *4576:A2 *199:56 0.000123469
28 *4581:A3 *4575:A 8.15939e-05
29 *118:10 *199:12 6.32633e-05
30 *121:12 *4575:A 5.80217e-05
31 *147:22 *199:12 2.77289e-05
32 *154:10 *4575:A 2.8266e-06
33 *154:25 *4575:A 2.09495e-05
34 *160:22 *4542:A2 0
35 *164:29 *4542:A2 0
36 *168:12 *4575:A 0
37 *169:16 *4542:A2 6.62898e-05
38 *175:83 *4542:A2 0.000102071
39 *189:14 *199:12 3.0285e-05
40 *189:34 *199:56 0.000100824
*RES
1 *4506:Y *199:12 27.4607 
2 *199:12 *199:16 3.01786 
3 *199:16 *4542:A2 27.8893 
4 *199:16 *4507:B2 9.72857 
5 *199:12 *4570:A2 9.3 
6 *4506:Y *199:56 17.5143 
7 *199:56 *4575:A 21.1571 
8 *199:56 *4576:A3 9.3 
*END

*D_NET *200 0.00224218
*CONN
*I *4508:B1 I *D sky130_fd_sc_hd__o22a_1
*I *4507:X O *D sky130_fd_sc_hd__o22a_1
*CAP
1 *4508:B1 0.000629746
2 *4507:X 0.000629746
3 *4508:B1 *244:25 0.000832071
4 *4489:B1 *4508:B1 0
5 *4492:A_N *4508:B1 1.02504e-05
6 *158:64 *4508:B1 0.000140368
*RES
1 *4507:X *4508:B1 37.475 
*END

*D_NET *201 0.000587286
*CONN
*I *4509:A2 I *D sky130_fd_sc_hd__a21o_1
*I *4508:X O *D sky130_fd_sc_hd__o22a_1
*CAP
1 *4509:A2 0.000182844
2 *4508:X 0.000182844
3 *4509:A2 *4488:A 5.71472e-05
4 *4488:B *4509:A2 4.22908e-05
5 *4508:A1 *4509:A2 7.32955e-05
6 *181:6 *4509:A2 4.88637e-05
*RES
1 *4508:X *4509:A2 22.4393 
*END

*D_NET *202 0.000679485
*CONN
*I *4510:B1 I *D sky130_fd_sc_hd__o31a_1
*I *4509:X O *D sky130_fd_sc_hd__a21o_1
*CAP
1 *4510:B1 0.000201637
2 *4509:X 0.000201637
3 *4510:A3 *4510:B1 0
4 *185:10 *4510:B1 0.000276211
*RES
1 *4509:X *4510:B1 31.8321 
*END

*D_NET *203 0.00558195
*CONN
*I *4643:A I *D sky130_fd_sc_hd__dlygate4sd3_1
*I *4454:A0 I *D sky130_fd_sc_hd__mux2_8
*I *4597:A2 I *D sky130_fd_sc_hd__a21oi_1
*I *4596:C I *D sky130_fd_sc_hd__and3_4
*I *4617:Q O *D sky130_fd_sc_hd__dfrtp_4
*CAP
1 *4643:A 0.000255937
2 *4454:A0 0.000666486
3 *4597:A2 6.81978e-05
4 *4596:C 0.000108306
5 *4617:Q 0
6 *203:14 0.00101289
7 *203:8 0.00156163
8 *203:6 0.00031469
9 *4454:A0 *4452:A 9.7659e-05
10 *4454:A0 *4454:S 2.00884e-05
11 *4596:C *4456:A0 1.02504e-05
12 *4596:C *4478:A1 0
13 *4596:C *4596:A 6.16744e-05
14 *4596:C *4627:A 0
15 *4597:A2 *4596:A 9.61553e-05
16 *4643:A *4453:A 0.000110147
17 *4643:A *253:10 0.00020455
18 *4643:A *255:12 0
19 *203:8 *253:10 0.000100831
20 *203:8 *255:12 0
21 *203:14 *4452:A 0.000227729
22 *203:14 *4596:A 5.03772e-05
23 *203:14 *253:10 0.000275809
24 *4598:A *4596:C 0
25 *4617:D *4643:A 0.000338546
26 *4617:RESET_B *203:14 0
27 *54:8 *203:14 0
28 *139:14 *4596:C 0
*RES
1 *4617:Q *203:6 13.8 
2 *203:6 *203:8 1.33929 
3 *203:8 *203:14 20 
4 *203:14 *4596:C 20.55 
5 *203:14 *4597:A2 11.0679 
6 *203:8 *4454:A0 21.7286 
7 *203:6 *4643:A 20.6036 
*END

*D_NET *204 0.00701464
*CONN
*I *4478:A0 I *D sky130_fd_sc_hd__mux2_8
*I *4644:A I *D sky130_fd_sc_hd__dlygate4sd3_1
*I *4597:A1 I *D sky130_fd_sc_hd__a21oi_1
*I *4596:A I *D sky130_fd_sc_hd__and3_4
*I *4618:Q O *D sky130_fd_sc_hd__dfrtp_4
*CAP
1 *4478:A0 0.00100585
2 *4644:A 0.000212946
3 *4597:A1 0
4 *4596:A 0.00130061
5 *4618:Q 0.000338829
6 *204:14 0.00103129
7 *204:8 0.00128831
8 *4478:A0 *4452:A 2.65319e-06
9 *4478:A0 *4456:A1 4.25716e-05
10 *4478:A0 *4478:A1 0.000275782
11 *4478:A0 *256:12 0.000103295
12 *4596:A *4456:A0 1.02504e-05
13 *4596:A *4478:A1 0
14 *4644:A *4595:A 7.80929e-05
15 *204:14 *4595:A 0.000109809
16 *204:14 *4597:B1 0.000752344
17 *204:14 *4610:A 9.21958e-05
18 *204:14 *213:40 0
19 *204:14 *247:64 5.31445e-05
20 *4596:C *4596:A 6.16744e-05
21 *4597:A2 *4596:A 9.61553e-05
22 *4618:RESET_B *4644:A 3.17163e-05
23 *4618:RESET_B *204:14 6.74911e-05
24 *4637:A *4478:A0 9.25014e-06
25 *203:14 *4596:A 5.03772e-05
*RES
1 *4618:Q *204:8 19.2643 
2 *204:8 *204:14 18.8036 
3 *204:14 *4596:A 22.9429 
4 *204:14 *4597:A1 9.3 
5 *204:8 *4644:A 18.1214 
6 *4596:A *4478:A0 41.0821 
*END

*D_NET *205 0.00354745
*CONN
*I *4642:A I *D sky130_fd_sc_hd__dlygate4sd3_1
*I *4596:B I *D sky130_fd_sc_hd__and3_4
*I *4456:A0 I *D sky130_fd_sc_hd__mux2_1
*I *4619:Q O *D sky130_fd_sc_hd__dfrtp_1
*CAP
1 *4642:A 0.000157976
2 *4596:B 0
3 *4456:A0 0.000321161
4 *4619:Q 0.000190763
5 *205:16 0.00115058
6 *205:8 0.00117816
7 *4456:A0 *4456:A1 5.71472e-05
8 *4456:A0 *4456:S 2.44318e-05
9 *4456:A0 *4478:A1 0
10 *4456:A0 *4627:A 0
11 *4642:A *4611:A 5.52238e-05
12 *4642:A *247:64 0
13 *205:16 *213:8 0.000139842
14 *205:16 *247:64 0
15 *4596:A *4456:A0 1.02504e-05
16 *4596:C *4456:A0 1.02504e-05
17 *4619:RESET_B *4642:A 0.000154762
18 *139:8 *205:16 9.68931e-05
*RES
1 *4619:Q *205:8 15.9786 
2 *205:8 *205:16 19.3214 
3 *205:16 *4456:A0 23.7464 
4 *205:16 *4596:B 9.3 
5 *205:8 *4642:A 17.4964 
*END

*D_NET *206 0.00576398
*CONN
*I *4600:A I *D sky130_fd_sc_hd__nor2_1
*I *4599:A I *D sky130_fd_sc_hd__and2_4
*I *4470:B I *D sky130_fd_sc_hd__or2_1
*I *4471:A0 I *D sky130_fd_sc_hd__mux2_4
*I *4620:Q O *D sky130_fd_sc_hd__dfrtp_4
*CAP
1 *4600:A 0.000368708
2 *4599:A 0
3 *4470:B 0
4 *4471:A0 0.000140248
5 *4620:Q 0.000472578
6 *206:20 0.000549474
7 *206:16 0.000512895
8 *206:14 0.000944955
9 *4471:A0 *4471:S 0.000271345
10 *4471:A0 *247:27 4.43256e-05
11 *4600:A *247:64 0
12 *206:14 *4612:A 2.3541e-05
13 *206:14 *247:10 0
14 *206:14 *247:27 0.000316184
15 *206:16 *247:27 0.000309273
16 *206:20 *247:27 0.00127316
17 *4601:A *206:16 2.14658e-05
18 *4601:A *206:20 0.000145767
19 *4601:B *4600:A 9.47028e-05
20 *4620:D *206:16 3.67142e-05
21 *4620:RESET_B *206:14 5.13992e-05
22 *4625:A *4600:A 9.01334e-05
23 *139:14 *4600:A 9.71197e-05
*RES
1 *4620:Q *206:14 27.3714 
2 *206:14 *206:16 3 
3 *206:16 *206:20 12.4643 
4 *206:20 *4471:A0 12.7107 
5 *206:20 *4470:B 9.3 
6 *206:16 *4599:A 9.3 
7 *206:14 *4600:A 25.2107 
*END

*D_NET *207 0.00810721
*CONN
*I *4645:A I *D sky130_fd_sc_hd__dlygate4sd3_1
*I *4465:A0 I *D sky130_fd_sc_hd__mux2_8
*I *4463:B I *D sky130_fd_sc_hd__or2_1
*I *4603:A I *D sky130_fd_sc_hd__and3_4
*I *4604:A1 I *D sky130_fd_sc_hd__a21oi_1
*I *4621:Q O *D sky130_fd_sc_hd__dfrtp_4
*CAP
1 *4645:A 0.000122166
2 *4465:A0 0
3 *4463:B 0.000124847
4 *4603:A 0.000152058
5 *4604:A1 5.05962e-05
6 *4621:Q 0.000205144
7 *207:40 0.00186354
8 *207:16 0.00137317
9 *207:10 0.00295826
10 *207:8 0.000376352
11 *4463:B *4465:S 1.66373e-05
12 *4463:B *253:10 0
13 *4603:A *4604:B1 0.000175512
14 *4603:A *208:8 2.51343e-06
15 *4603:A *208:10 1.40306e-05
16 *4603:A *212:10 0
17 *207:16 *245:10 0
18 *4464:B1 *4463:B 0
19 *4603:C *4603:A 0
20 *4605:A *4603:A 5.33005e-05
21 *4605:B *207:16 1.44042e-05
22 *4621:D *207:40 0.000572143
23 *4621:RESET_B *207:10 9.11365e-06
24 *4621:RESET_B *207:16 2.34204e-05
25 *4639:A *4645:A 0
26 *4639:A *207:10 0
27 *4639:A *207:16 0
28 *141:10 *4603:A 0
*RES
1 *4621:Q *207:8 17.2107 
2 *207:8 *207:10 1.03571 
3 *207:10 *207:16 19.9643 
4 *207:16 *4604:A1 9.83571 
5 *207:16 *4603:A 21.6929 
6 *207:10 *207:40 25.5714 
7 *207:40 *4463:B 20.175 
8 *207:40 *4465:A0 9.3 
9 *207:8 *4645:A 16.05 
*END

*D_NET *208 0.00589951
*CONN
*I *4604:B1 I *D sky130_fd_sc_hd__a21oi_1
*I *4603:B I *D sky130_fd_sc_hd__and3_4
*I *4462:A0 I *D sky130_fd_sc_hd__mux2_8
*I *4460:B I *D sky130_fd_sc_hd__or2_4
*I *4622:Q O *D sky130_fd_sc_hd__dfrtp_4
*CAP
1 *4604:B1 0.000187317
2 *4603:B 2.23854e-05
3 *4462:A0 0
4 *4460:B 7.37879e-05
5 *4622:Q 0.00102124
6 *208:12 0.00127999
7 *208:10 0.00129641
8 *208:8 0.00127638
9 *4460:B *232:49 0
10 *4604:B1 *212:10 0
11 *4604:B1 *212:14 0
12 *4474:A *4460:B 1.56467e-05
13 *4603:A *4604:B1 0.000175512
14 *4603:A *208:8 2.51343e-06
15 *4603:A *208:10 1.40306e-05
16 *4603:C *4604:B1 0
17 *4603:C *208:12 5.62995e-05
18 *4605:A *208:8 4.46231e-06
19 *4605:A *208:10 5.19842e-06
20 *4605:A *208:12 5.19842e-06
21 *4605:B *4604:B1 4.94268e-05
22 *4622:D *208:8 0.000404707
23 *143:12 *4604:B1 0
24 *143:12 *208:12 9.01258e-06
*RES
1 *4622:Q *208:8 22.175 
2 *208:8 *208:10 0.946429 
3 *208:10 *208:12 14.0893 
4 *208:12 *4460:B 19.6393 
5 *208:12 *4462:A0 9.3 
6 *208:10 *4603:B 9.72857 
7 *208:8 *4604:B1 21.7643 
*END

*D_NET *209 0.00415763
*CONN
*I *4607:A I *D sky130_fd_sc_hd__or2_1
*I *4606:A I *D sky130_fd_sc_hd__nand2_1
*I *4476:A2 I *D sky130_fd_sc_hd__o21ai_4
*I *4475:A2 I *D sky130_fd_sc_hd__o21a_4
*I *4623:Q O *D sky130_fd_sc_hd__dfrtp_4
*CAP
1 *4607:A 0.000136819
2 *4606:A 0
3 *4476:A2 2.23854e-05
4 *4475:A2 0.000151284
5 *4623:Q 0.000157215
6 *209:38 0.000842638
7 *209:12 0.000905708
8 *209:10 0.00159507
9 *4475:A2 *4476:A1 0
10 *209:38 *4615:A 0.000115705
11 *4476:B1 *4475:A2 5.80217e-05
12 *4606:B *4607:A 0.000144773
13 *4623:RESET_B *209:10 0
14 *4623:RESET_B *209:38 2.80081e-05
*RES
1 *4623:Q *209:10 21.1571 
2 *209:10 *209:12 11.2143 
3 *209:12 *4475:A2 21.1929 
4 *209:12 *4476:A2 9.72857 
5 *209:10 *209:38 11.7679 
6 *209:38 *4606:A 9.3 
7 *209:38 *4607:A 11.9071 
*END

*D_NET *210 0.00360672
*CONN
*I *4468:B I *D sky130_fd_sc_hd__or2_4
*I *4641:A I *D sky130_fd_sc_hd__dlygate4sd3_1
*I *4624:Q O *D sky130_fd_sc_hd__dfrtp_1
*CAP
1 *4468:B 0.000638234
2 *4641:A 8.61506e-05
3 *4624:Q 0.000550457
4 *210:10 0.00127484
5 *4468:B *4616:A 0
6 *4468:B *212:14 0
7 *4468:B *245:14 0.000971331
8 *4468:B *245:45 8.57023e-05
9 *210:10 *4609:A 0
10 *210:10 *212:14 0
11 *4624:RESET_B *210:10 0
*RES
1 *4624:Q *210:10 20.8 
2 *210:10 *4641:A 15.1571 
3 *210:10 *4468:B 28.7643 
*END

*D_NET *211 0.00253037
*CONN
*I *4627:A I *D sky130_fd_sc_hd__clkbuf_16
*I *4626:A I *D sky130_fd_sc_hd__clkbuf_16
*I *4625:X O *D sky130_fd_sc_hd__clkbuf_16
*CAP
1 *4627:A 0.000670213
2 *4626:A 0.000267668
3 *4625:X 5.05962e-05
4 *211:8 0.000988478
5 *4626:A *4602:A 0
6 *4626:A *4621:CLK 0
7 *4626:A *212:10 0
8 *4627:A *4620:CLK 6.07626e-05
9 *4456:A0 *4627:A 0
10 *4596:C *4627:A 0
11 *4599:B *4627:A 0.00022217
12 *4620:D *4627:A 0
13 *4621:D *4626:A 0.000125717
14 *4625:A *4626:A 0
15 *4625:A *4627:A 0
16 *139:14 *4627:A 0.000144764
17 *141:8 *4626:A 0
18 *141:8 *4627:A 0
*RES
1 *4625:X *211:8 14.3357 
2 *211:8 *4626:A 19.0857 
3 *211:8 *4627:A 27.8893 
*END

*D_NET *212 0.00473415
*CONN
*I *4621:CLK I *D sky130_fd_sc_hd__dfrtp_4
*I *4622:CLK I *D sky130_fd_sc_hd__dfrtp_4
*I *4624:CLK I *D sky130_fd_sc_hd__dfrtp_1
*I *4623:CLK I *D sky130_fd_sc_hd__dfrtp_4
*I *4626:X O *D sky130_fd_sc_hd__clkbuf_16
*CAP
1 *4621:CLK 7.42773e-05
2 *4622:CLK 0
3 *4624:CLK 0
4 *4623:CLK 0.000589394
5 *4626:X 0.000189403
6 *212:14 0.00113485
7 *212:10 0.000977942
8 *212:8 0.000696161
9 *4621:CLK *4602:A 0.000123295
10 *4623:CLK *4609:A 0.000345503
11 *212:8 *4602:A 2.59355e-05
12 *212:8 *4613:A 6.05161e-06
13 *212:10 *4602:A 5.66157e-05
14 *212:10 *4613:A 0
15 *212:10 *245:10 0
16 *212:14 *4609:A 8.16036e-05
17 *212:14 *245:10 0
18 *4468:B *212:14 0
19 *4603:A *212:10 0
20 *4604:B1 *212:10 0
21 *4604:B1 *212:14 0
22 *4605:B *212:10 0
23 *4605:B *212:14 0
24 *4609:B *4623:CLK 0.00010096
25 *4621:D *212:10 0
26 *4623:D *4623:CLK 0.000104611
27 *4626:A *4621:CLK 0
28 *4626:A *212:10 0
29 *145:12 *4623:CLK 0.000227539
30 *210:10 *212:14 0
*RES
1 *4626:X *212:8 15.9786 
2 *212:8 *212:10 8.01786 
3 *212:10 *212:14 14.6429 
4 *212:14 *4623:CLK 21.8 
5 *212:14 *4624:CLK 9.3 
6 *212:10 *4622:CLK 13.8 
7 *212:8 *4621:CLK 15.4429 
*END

*D_NET *213 0.00490337
*CONN
*I *4618:CLK I *D sky130_fd_sc_hd__dfrtp_4
*I *4617:CLK I *D sky130_fd_sc_hd__dfrtp_4
*I *4619:CLK I *D sky130_fd_sc_hd__dfrtp_1
*I *4620:CLK I *D sky130_fd_sc_hd__dfrtp_4
*I *4627:X O *D sky130_fd_sc_hd__clkbuf_16
*CAP
1 *4618:CLK 0
2 *4617:CLK 0.000561988
3 *4619:CLK 2.42845e-05
4 *4620:CLK 0.00052484
5 *4627:X 0.000244017
6 *213:40 0.000991721
7 *213:23 0.000544617
8 *213:8 0.000859456
9 *4617:CLK *4595:B 0.000115562
10 *4619:CLK *4597:B1 0.000142434
11 *4620:CLK *247:64 0
12 *213:40 *4595:A 0
13 *213:40 *4595:B 0
14 *4598:A *4620:CLK 1.19402e-05
15 *4598:A *213:23 3.75052e-05
16 *4599:B *4620:CLK 9.45905e-05
17 *4601:B *4620:CLK 7.50601e-05
18 *4618:D *213:40 4.35048e-05
19 *4619:D *4619:CLK 0.000121894
20 *4620:D *4620:CLK 4.79842e-05
21 *4625:A *4620:CLK 0.000106903
22 *4627:A *4620:CLK 6.07626e-05
23 *139:14 *4620:CLK 0.000154464
24 *204:14 *213:40 0
25 *205:16 *213:8 0.000139842
*RES
1 *4627:X *213:8 17.2107 
2 *213:8 *4620:CLK 25.7286 
3 *213:8 *213:23 1.64286 
4 *213:23 *4619:CLK 15.1571 
5 *213:23 *213:40 12.5714 
6 *213:40 *4617:CLK 28.1929 
7 *213:40 *4618:CLK 9.3 
*END

*D_NET *214 0.00341253
*CONN
*I *4454:A1 I *D sky130_fd_sc_hd__mux2_8
*I *4646:X O *D sky130_fd_sc_hd__buf_1
*CAP
1 *4454:A1 0.00145128
2 *4646:X 0.00145128
3 *4454:A1 *4478:A1 4.0552e-05
4 *4454:A1 *255:12 0
5 *4454:A1 *256:12 0.000437724
6 *4653:A *4454:A1 3.17067e-05
*RES
1 *4646:X *4454:A1 44.2107 
*END

*D_NET *215 0.0091187
*CONN
*I *4663:A I *D sky130_fd_sc_hd__clkbuf_1
*I *4534:X O *D sky130_fd_sc_hd__a22o_1
*CAP
1 *4663:A 0.000378622
2 *4534:X 0.00251997
3 *215:8 0.00289859
4 *4663:A *4664:A 0
5 *4477:A *215:8 0.000578029
6 *4591:B1 *215:8 0.000184745
7 *4592:S *4663:A 0
8 *147:10 *215:8 0.000396892
9 *162:43 *215:8 0.00101424
10 *170:10 *215:8 0.00114761
*RES
1 *4534:X *215:8 49.6571 
2 *215:8 *4663:A 20.3 
*END

*D_NET *216 0.00780602
*CONN
*I *4664:A I *D sky130_fd_sc_hd__clkbuf_1
*I *4548:X O *D sky130_fd_sc_hd__a22o_1
*CAP
1 *4664:A 0.000253999
2 *4548:X 0
3 *216:6 0.00247621
4 *216:4 0.00222222
5 *4664:A *4665:A 0
6 *4664:A *4668:A 0
7 *216:6 *4511:A1 9.41642e-05
8 *216:6 *238:58 0.00123846
9 *216:6 *257:16 0.000276211
10 *4548:A1 *216:6 0.000308536
11 *4548:B2 *216:6 0.000361914
12 *4592:A1 *216:6 8.43535e-06
13 *4592:S *216:6 5.52302e-05
14 *4663:A *4664:A 0
15 *62:14 *216:6 2.42516e-05
16 *170:20 *216:6 0.000383385
17 *170:22 *216:6 0.000103004
*RES
1 *4548:X *216:4 9.3 
2 *216:4 *216:6 46.5357 
3 *216:6 *4664:A 22.675 
*END

*D_NET *217 0.00356342
*CONN
*I *4665:A I *D sky130_fd_sc_hd__clkbuf_1
*I *4562:X O *D sky130_fd_sc_hd__a22o_1
*CAP
1 *4665:A 0.00173215
2 *4562:X 0.00173215
3 *4665:A *4666:A 0
4 *4665:A *4668:A 9.91086e-05
5 *4664:A *4665:A 0
*RES
1 *4562:X *4665:A 48.2607 
*END

*D_NET *218 0.00979988
*CONN
*I *4666:A I *D sky130_fd_sc_hd__clkbuf_1
*I *4573:X O *D sky130_fd_sc_hd__a22o_1
*CAP
1 *4666:A 0.000874516
2 *4573:X 0.00219154
3 *218:8 0.00306606
4 *4666:A *4591:A1 0.000723821
5 *4666:A *4668:A 0
6 *4666:A *236:51 0.000196269
7 *4666:A *236:70 0.000360094
8 *4666:A *238:58 0
9 *218:8 *222:12 0.000867049
10 *218:8 *228:28 0.000162138
11 *218:8 *236:12 1.92905e-05
12 *218:8 *236:21 0.000423338
13 *4473:C *4666:A 0
14 *4515:B *218:8 9.22103e-06
15 *4573:A2 *218:8 3.69047e-06
16 *4582:A *4666:A 0.00020455
17 *4589:A3 *4666:A 0.000290455
18 *4589:B1 *4666:A 0.000150625
19 *4591:A2 *4666:A 7.79781e-06
20 *4592:A1 *4666:A 0
21 *4665:A *4666:A 0
22 *166:21 *4666:A 0.000210198
23 *186:18 *218:8 1.34703e-05
24 *186:22 *218:8 2.575e-05
*RES
1 *4573:X *218:8 42.2643 
2 *218:8 *4666:A 37.3 
*END

*D_NET *219 0.00336361
*CONN
*I *4667:A I *D sky130_fd_sc_hd__clkbuf_1
*I *4583:X O *D sky130_fd_sc_hd__mux2_1
*CAP
1 *4667:A 0
2 *4583:X 0.00138332
3 *219:14 0.00138332
4 *219:14 *4668:A 0.000312998
5 *219:14 *257:16 0.000283968
6 *4583:A0 *219:14 0
7 *4583:S *219:14 0
*RES
1 *4583:X *219:14 45.6214 
2 *219:14 *4667:A 9.3 
*END

*D_NET *220 0.00206111
*CONN
*I *4668:A I *D sky130_fd_sc_hd__clkbuf_1
*I *4592:X O *D sky130_fd_sc_hd__mux2_1
*CAP
1 *4668:A 0.00040552
2 *4592:X 0.00040552
3 *4668:A *257:16 0.000837963
4 *4664:A *4668:A 0
5 *4665:A *4668:A 9.91086e-05
6 *4666:A *4668:A 0
7 *219:14 *4668:A 0.000312998
*RES
1 *4592:X *4668:A 39.725 
*END

*D_NET *221 0.00714173
*CONN
*I *4669:A I *D sky130_fd_sc_hd__clkbuf_1
*I *4594:Y O *D sky130_fd_sc_hd__nor2_1
*CAP
1 *4669:A 0.00053514
2 *4594:Y 0.00193968
3 *221:6 0.00247482
4 *4477:B *4669:A 7.26935e-05
5 *4593:A *221:6 1.39841e-05
6 *4593:B *221:6 0.000369375
7 *4593:C *221:6 0.000402784
8 *4594:B *221:6 0.00010096
9 *162:39 *221:6 0.00123228
*RES
1 *4594:Y *221:6 49.675 
2 *221:6 *4669:A 27.8357 
*END

*D_NET *222 0.0192836
*CONN
*I *4511:A1 I *D sky130_fd_sc_hd__a32o_1
*I *4549:A1 I *D sky130_fd_sc_hd__a22o_1
*I *4536:A1 I *D sky130_fd_sc_hd__a31oi_1
*I *4550:A I *D sky130_fd_sc_hd__and3_4
*I *4517:A1 I *D sky130_fd_sc_hd__o31a_1
*I *4654:X O *D sky130_fd_sc_hd__clkbuf_2
*CAP
1 *4511:A1 0.000232431
2 *4549:A1 0
3 *4536:A1 9.8221e-05
4 *4550:A 0.00033525
5 *4517:A1 0.00119622
6 *4654:X 0.000298266
7 *222:65 0.000683791
8 *222:39 0.00235151
9 *222:16 0.00319983
10 *222:12 0.000835196
11 *4517:A1 *228:22 0.000331057
12 *222:12 *228:22 0.000282977
13 *222:16 *227:57 3.41823e-05
14 *222:39 *228:22 0.00060008
15 *222:39 *229:17 0.00209088
16 *222:39 *229:30 8.27532e-05
17 *222:65 *227:57 6.57032e-05
18 *4515:B *222:12 5.30637e-06
19 *4529:A *4550:A 0
20 *4529:B *4536:A1 5.33433e-05
21 *4533:B1 *222:39 0.00021528
22 *4536:A2 *4550:A 0.00038081
23 *4536:A3 *4550:A 1.76039e-05
24 *4536:A3 *222:39 3.17163e-05
25 *4549:B1 *222:39 0.000238795
26 *4555:A2 *222:65 0
27 *4561:A1 *222:65 0.000383295
28 *4562:B1 *4511:A1 0.000579295
29 *4562:B1 *222:65 0.00015234
30 *4562:B2 *4511:A1 3.51442e-05
31 *4594:A *222:39 1.08359e-05
32 *62:14 *4511:A1 0.000124073
33 *62:14 *4517:A1 0.000163231
34 *62:14 *222:12 0.000281262
35 *62:14 *222:65 0.00013254
36 *66:8 *222:12 0.000528324
37 *75:8 *222:39 9.71197e-05
38 *75:10 *222:39 3.34687e-05
39 *99:12 *4550:A 0.000709605
40 *130:26 *4517:A1 8.89085e-05
41 *130:34 *4517:A1 0.000863087
42 *162:39 *4511:A1 0.000201127
43 *162:93 *4511:A1 0.00014576
44 *169:22 *222:65 0
45 *169:33 *222:65 0
46 *170:20 *4511:A1 2.16629e-05
47 *185:49 *4517:A1 0
48 *185:49 *222:39 0
49 *185:68 *222:39 0
50 *186:18 *222:12 0.000110162
51 *216:6 *4511:A1 9.41642e-05
52 *218:8 *222:12 0.000867049
*RES
1 *4654:X *222:12 30.4071 
2 *222:12 *222:16 5.44643 
3 *222:16 *4517:A1 34.0321 
4 *222:16 *222:39 49.1786 
5 *222:39 *4550:A 25.175 
6 *222:39 *4536:A1 15.5679 
7 *222:12 *222:65 14.1786 
8 *222:65 *4549:A1 13.8 
9 *222:65 *4511:A1 22.5857 
*END

*D_NET *223 0.0112599
*CONN
*I *4487:A_N I *D sky130_fd_sc_hd__nand2b_4
*I *4497:A I *D sky130_fd_sc_hd__nor2_1
*I *4557:B I *D sky130_fd_sc_hd__and3_4
*I *4458:B I *D sky130_fd_sc_hd__nor2_2
*I *4499:A1 I *D sky130_fd_sc_hd__o21ai_2
*I *4486:A_N I *D sky130_fd_sc_hd__and2b_4
*I *4514:B I *D sky130_fd_sc_hd__and2b_4
*I *4498:A I *D sky130_fd_sc_hd__or2_4
*I *4655:X O *D sky130_fd_sc_hd__buf_2
*CAP
1 *4487:A_N 0
2 *4497:A 0.000198554
3 *4557:B 0.000101529
4 *4458:B 0
5 *4499:A1 0.000182606
6 *4486:A_N 0
7 *4514:B 0.000122898
8 *4498:A 0.000143635
9 *4655:X 0.000839388
10 *223:82 0.000605106
11 *223:67 0.000428312
12 *223:61 0.000135347
13 *223:27 0.000254582
14 *223:25 0.000444413
15 *223:14 0.0011252
16 *4497:A *4541:A 2.59795e-05
17 *4497:A *228:76 0.000148189
18 *4497:A *244:105 5.80706e-06
19 *4497:A *244:116 0.000130277
20 *4499:A1 *4455:A 0.00014285
21 *4499:A1 *224:28 0.000469491
22 *4499:A1 *224:40 9.99853e-05
23 *4514:B *226:16 5.52302e-05
24 *223:14 *4525:C1 0.000167684
25 *223:14 *224:14 0.000114263
26 *223:14 *224:16 0.000207427
27 *223:14 *224:20 0.000196276
28 *223:14 *228:62 0.000136951
29 *223:14 *228:70 5.33978e-05
30 *223:25 *226:10 0
31 *223:25 *244:88 0
32 *223:27 *226:10 0
33 *223:27 *226:16 0
34 *223:61 *4499:A2 2.89114e-05
35 *223:61 *224:40 4.27935e-05
36 *223:67 *4499:A2 2.59355e-05
37 *223:67 *224:40 0.000185527
38 *223:82 *224:40 0.000531943
39 *223:82 *244:94 0
40 *4512:A2 *223:14 5.97401e-05
41 *4513:B1 *223:14 1.94945e-05
42 *4525:A1 *223:14 5.94896e-06
43 *4556:A1 *223:14 0.000325267
44 *4556:A3 *223:14 0.000301438
45 *4558:A *4497:A 0.000175519
46 *4558:A *223:82 0.00048287
47 *4558:C *4497:A 0.000153054
48 *4567:B1 *223:25 0.000415462
49 *4567:B1 *223:27 2.24646e-05
50 *4584:A0 *4499:A1 5.65955e-05
51 *4584:A0 *223:82 6.05161e-06
52 *4584:S *4497:A 3.33174e-05
53 *4584:S *4557:B 4.78014e-06
54 *4584:S *223:82 1.57414e-05
55 *65:8 *4514:B 3.79467e-05
56 *65:8 *223:27 1.00375e-05
57 *106:6 *4557:B 6.86792e-05
58 *148:8 *223:25 0.000129746
59 *176:20 *4497:A 2.59355e-05
60 *180:8 *223:67 0
61 *180:50 *223:67 1.74352e-05
62 *191:8 *4498:A 9.90367e-05
63 *191:8 *223:14 0.000216755
64 *192:23 *4499:A1 0.00105547
65 *192:29 *223:27 0.000170654
*RES
1 *4655:X *223:14 34.4607 
2 *223:14 *4498:A 11.8893 
3 *223:14 *223:25 9.78571 
4 *223:25 *223:27 2.85714 
5 *223:27 *4514:B 16.2821 
6 *223:27 *4486:A_N 13.8 
7 *223:25 *4499:A1 24.1929 
8 *4499:A1 *223:61 9.83571 
9 *223:61 *223:67 7.28571 
10 *223:67 *4458:B 13.8 
11 *223:67 *223:82 13.1875 
12 *223:82 *4557:B 11.2911 
13 *223:82 *4497:A 24.5768 
14 *223:61 *4487:A_N 9.3 
*END

*D_NET *224 0.0139729
*CONN
*I *4525:C1 I *D sky130_fd_sc_hd__a211o_1
*I *4512:B1 I *D sky130_fd_sc_hd__a21oi_1
*I *4567:A2 I *D sky130_fd_sc_hd__o32a_1
*I *4528:B1 I *D sky130_fd_sc_hd__a21o_1
*I *4537:C1 I *D sky130_fd_sc_hd__a211o_1
*I *4499:B1 I *D sky130_fd_sc_hd__o21ai_2
*I *4541:A I *D sky130_fd_sc_hd__or3b_1
*I *4584:A1 I *D sky130_fd_sc_hd__mux2_4
*I *4656:X O *D sky130_fd_sc_hd__buf_2
*CAP
1 *4525:C1 0.000390165
2 *4512:B1 0
3 *4567:A2 3.89072e-05
4 *4528:B1 0.000138476
5 *4537:C1 1.82115e-05
6 *4499:B1 0
7 *4541:A 0.000249468
8 *4584:A1 0
9 *4656:X 0.00109158
10 *224:40 0.000762866
11 *224:28 0.00104392
12 *224:24 0.000714943
13 *224:20 0.00047121
14 *224:16 0.000303224
15 *224:14 0.000145401
16 *224:12 0.00152936
17 *4525:C1 *4556:A2 6.27272e-06
18 *4525:C1 *4556:B2 0.000289147
19 *4525:C1 *227:65 0
20 *4525:C1 *228:70 1.12484e-05
21 *4537:C1 *4455:A 1.04232e-05
22 *4537:C1 *4537:A1 3.99614e-06
23 *4541:A *4631:A 0.000127019
24 *4541:A *228:76 0.000286725
25 *4541:A *231:69 1.41029e-05
26 *224:12 *4635:A 0.000152253
27 *224:12 *241:8 0.000268403
28 *224:12 *243:56 0.000170379
29 *224:14 *4556:B2 0.000122089
30 *224:16 *4556:B2 0.000209754
31 *224:20 *4556:B2 0.000237528
32 *224:20 *244:35 0.000295137
33 *224:24 *4455:A 4.16984e-05
34 *224:24 *244:35 1.55885e-05
35 *224:28 *4455:A 0.000206573
36 *224:28 *4499:A2 0
37 *224:40 *4499:A2 3.99958e-05
38 *224:40 *4631:A 0.000120655
39 *4497:A *4541:A 2.59795e-05
40 *4499:A1 *224:28 0.000469491
41 *4499:A1 *224:40 9.99853e-05
42 *4512:A2 *224:12 0.000137983
43 *4525:A1 *4525:C1 3.25078e-05
44 *4525:A2 *4525:C1 5.83141e-05
45 *4528:A2 *4528:B1 3.99614e-06
46 *4530:B1 *4528:B1 9.90431e-05
47 *4538:B2 *4528:B1 0.00010096
48 *4556:A1 *4525:C1 0
49 *4556:A1 *224:20 0.000177867
50 *4556:A3 *4528:B1 0.000269422
51 *4558:A *4541:A 8.89385e-05
52 *4558:A *224:40 4.13573e-05
53 *4559:A2 *4541:A 0.000426254
54 *4560:A2 *4525:C1 2.56694e-05
55 *4563:B *4525:C1 6.04692e-05
56 *4584:A0 *224:40 2.75938e-05
57 *65:32 *4567:A2 9.41642e-05
58 *65:38 *224:12 0.000401161
59 *107:10 *4541:A 7.83659e-05
60 *148:12 *4567:A2 2.59355e-05
61 *148:23 *4567:A2 2.59355e-05
62 *151:32 *224:40 9.6732e-05
63 *180:8 *224:40 0
64 *180:50 *4528:B1 2.65105e-05
65 *180:50 *224:40 9.31893e-05
66 *186:22 *4525:C1 1.24368e-05
67 *223:14 *4525:C1 0.000167684
68 *223:14 *224:14 0.000114263
69 *223:14 *224:16 0.000207427
70 *223:14 *224:20 0.000196276
71 *223:61 *224:40 4.27935e-05
72 *223:67 *224:40 0.000185527
73 *223:82 *224:40 0.000531943
*RES
1 *4656:X *224:12 33.3714 
2 *224:12 *224:14 1.64286 
3 *224:14 *224:16 2.85714 
4 *224:16 *224:20 11.3036 
5 *224:20 *224:24 2.19643 
6 *224:24 *224:28 10.8214 
7 *224:28 *224:40 18.9286 
8 *224:40 *4584:A1 13.8 
9 *224:40 *4541:A 23.6393 
10 *224:28 *4499:B1 9.3 
11 *224:24 *4537:C1 9.72857 
12 *224:20 *4528:B1 13.5679 
13 *224:16 *4567:A2 14.7464 
14 *224:14 *4512:B1 13.8 
15 *224:12 *4525:C1 21.6393 
*END

*D_NET *225 0.0035008
*CONN
*I *4478:A1 I *D sky130_fd_sc_hd__mux2_8
*I *4647:X O *D sky130_fd_sc_hd__buf_1
*CAP
1 *4478:A1 0.000881342
2 *4647:X 0.000881342
3 *4478:A1 *4456:A1 0.00114517
4 *4478:A1 *4456:S 0.000276612
5 *4454:A1 *4478:A1 4.0552e-05
6 *4456:A0 *4478:A1 0
7 *4478:A0 *4478:A1 0.000275782
8 *4596:A *4478:A1 0
9 *4596:C *4478:A1 0
*RES
1 *4647:X *4478:A1 40.3804 
*END

*D_NET *226 0.00819131
*CONN
*I *4498:B I *D sky130_fd_sc_hd__or2_4
*I *4486:B I *D sky130_fd_sc_hd__and2b_4
*I *4479:A I *D sky130_fd_sc_hd__inv_1
*I *4517:A2 I *D sky130_fd_sc_hd__o31a_1
*I *4518:A2 I *D sky130_fd_sc_hd__a211o_1
*I *4514:A_N I *D sky130_fd_sc_hd__and2b_4
*I *4657:X O *D sky130_fd_sc_hd__clkbuf_2
*CAP
1 *4498:B 0
2 *4486:B 6.35045e-05
3 *4479:A 0.000118799
4 *4517:A2 0.000540985
5 *4518:A2 0.000117357
6 *4514:A_N 0
7 *4657:X 0.000557154
8 *226:40 0.000851684
9 *226:23 0.0013275
10 *226:16 0.00151329
11 *226:10 0.000998729
12 *226:6 0.000997331
13 *4479:A *4518:C1 9.25014e-06
14 *4517:A2 *4518:C1 0.000219244
15 *4517:A2 *4656:A 7.79781e-06
16 *4517:A2 *239:14 0.000176451
17 *226:10 *244:88 6.42242e-05
18 *4495:A *4517:A2 7.83587e-05
19 *4495:B *4517:A2 0.000141721
20 *4500:B *4517:A2 0
21 *4501:B1 *4517:A2 7.38526e-05
22 *4514:B *226:16 5.52302e-05
23 *4518:B1 *4479:A 2.80853e-05
24 *4571:B2 *4517:A2 0.000113286
25 *130:26 *4517:A2 5.52302e-05
26 *148:8 *226:10 0
27 *151:32 *4486:B 5.41609e-05
28 *175:48 *4479:A 2.80853e-05
29 *179:42 *4517:A2 0
30 *223:25 *226:10 0
31 *223:27 *226:10 0
32 *223:27 *226:16 0
*RES
1 *4657:X *226:6 18.05 
2 *226:6 *226:10 12.2143 
3 *226:10 *226:16 12.3214 
4 *226:16 *4514:A_N 9.3 
5 *226:16 *226:23 15.7321 
6 *226:23 *4518:A2 20.2464 
7 *226:23 *226:40 7.86607 
8 *226:40 *4517:A2 27.0589 
9 *226:40 *4479:A 15.9116 
10 *226:10 *4486:B 15.1571 
11 *226:6 *4498:B 9.3 
*END

*D_NET *227 0.0214182
*CONN
*I *4578:A1 I *D sky130_fd_sc_hd__a21o_1
*I *4588:A1 I *D sky130_fd_sc_hd__a31o_1
*I *4466:B I *D sky130_fd_sc_hd__nor2_1
*I *4560:A1 I *D sky130_fd_sc_hd__o211a_1
*I *4564:C1 I *D sky130_fd_sc_hd__o211ai_1
*I *4530:C1 I *D sky130_fd_sc_hd__o211a_1
*I *4565:C1 I *D sky130_fd_sc_hd__a221o_1
*I *4658:X O *D sky130_fd_sc_hd__buf_2
*CAP
1 *4578:A1 0
2 *4588:A1 7.94543e-05
3 *4466:B 0
4 *4560:A1 0
5 *4564:C1 6.95091e-05
6 *4530:C1 0.000623313
7 *4565:C1 2.73593e-05
8 *4658:X 0.000541309
9 *227:65 0.00106834
10 *227:57 0.00227894
11 *227:43 0.0023075
12 *227:26 0.00131729
13 *227:16 0.0016974
14 *227:12 0.0012734
15 *4588:A1 *240:21 0.000222892
16 *227:43 *231:12 2.77289e-05
17 *227:57 *4568:A1 0.000473499
18 *227:57 *231:12 0.000972909
19 *227:57 *231:39 0.000981389
20 *227:65 *231:39 0.000145451
21 *4459:A *227:26 0.00108942
22 *4466:A *227:43 5.90995e-05
23 *4493:A *227:26 5.52238e-05
24 *4493:B *227:26 0.000183726
25 *4509:A1 *227:43 7.6644e-05
26 *4525:A2 *4530:C1 5.55405e-05
27 *4525:A2 *227:65 0.000137443
28 *4525:C1 *227:65 0
29 *4536:A2 *227:65 4.46186e-06
30 *4541:B *227:65 0
31 *4556:A1 *4530:C1 0.000545985
32 *4556:A1 *227:65 8.6229e-06
33 *4560:A2 *4564:C1 2.59355e-05
34 *4560:A2 *227:65 0.000196282
35 *4560:B1 *227:65 9.91086e-05
36 *4565:B1 *4565:C1 1.3701e-05
37 *4565:B1 *227:43 0
38 *4565:B2 *4565:C1 2.08464e-05
39 *4565:B2 *227:26 1.55885e-05
40 *4567:B1 *4530:C1 0.000389854
41 *4567:B2 *4530:C1 0.000506907
42 *4569:B2 *227:57 0.000253315
43 *4581:B1 *227:12 0.000119924
44 *4588:A3 *4588:A1 0
45 *4588:A3 *227:26 6.22596e-05
46 *4590:A1 *4588:A1 0.000272679
47 *4590:A1 *227:26 0.000101545
48 *65:19 *4530:C1 0.000414762
49 *66:23 *227:43 0
50 *99:12 *227:57 0.000138838
51 *99:12 *227:65 2.47753e-05
52 *112:20 *4564:C1 5.71472e-05
53 *148:101 *4530:C1 0
54 *152:6 *227:26 2.14757e-05
55 *154:25 *227:12 0.000272658
56 *154:47 *227:43 0.000396495
57 *162:8 *227:12 0.000130339
58 *162:8 *227:16 3.4879e-05
59 *164:16 *227:16 0.000255157
60 *168:18 *227:26 0.000377237
61 *173:47 *227:26 0.000399835
62 *176:20 *4564:C1 7.77652e-05
63 *186:18 *227:26 0.000315158
64 *190:12 *227:65 0
65 *222:16 *227:57 3.41823e-05
66 *222:65 *227:57 6.57032e-05
*RES
1 *4658:X *227:12 26.8179 
2 *227:12 *227:16 14.0714 
3 *227:16 *227:26 25.8214 
4 *227:26 *4565:C1 10.0321 
5 *227:26 *227:43 17.3929 
6 *227:43 *227:57 36.375 
7 *227:57 *227:65 13.0893 
8 *227:65 *4530:C1 31.2643 
9 *227:65 *4564:C1 15.5679 
10 *227:57 *4560:A1 9.3 
11 *227:43 *4466:B 9.3 
12 *227:16 *4588:A1 17.2643 
13 *227:12 *4578:A1 9.3 
*END

*D_NET *228 0.0192789
*CONN
*I *4549:B2 I *D sky130_fd_sc_hd__a22o_1
*I *4515:A I *D sky130_fd_sc_hd__nor2_2
*I *4556:A2 I *D sky130_fd_sc_hd__o32a_1
*I *4558:B I *D sky130_fd_sc_hd__or3_1
*I *4545:A1 I *D sky130_fd_sc_hd__a31o_1
*I *4524:B1 I *D sky130_fd_sc_hd__a21o_1
*I *4516:A I *D sky130_fd_sc_hd__or4b_1
*I *4491:A I *D sky130_fd_sc_hd__or2_4
*I *4659:X O *D sky130_fd_sc_hd__buf_2
*CAP
1 *4549:B2 2.23854e-05
2 *4515:A 0
3 *4556:A2 1.20499e-05
4 *4558:B 0
5 *4545:A1 0
6 *4524:B1 0.000453905
7 *4516:A 0
8 *4491:A 0.000176995
9 *4659:X 0.00132497
10 *228:76 0.000746649
11 *228:70 0.00135015
12 *228:62 0.00234696
13 *228:30 0.000347733
14 *228:28 0.00167842
15 *228:22 0.000631743
16 *228:14 0.00174892
17 *4524:B1 *4484:B 0
18 *4524:B1 *4540:B 0.000212851
19 *4524:B1 *4545:A2 8.90371e-05
20 *4524:B1 *231:39 9.90431e-05
21 *4524:B1 *231:41 0.000140933
22 *228:62 *4457:A 8.56752e-05
23 *228:62 *241:27 0.000797099
24 *228:76 *4484:B 5.59013e-05
25 *228:76 *231:69 0
26 *228:76 *244:116 0.000140631
27 *4477:B *228:14 0.000182899
28 *4494:B1 *4491:A 7.00299e-05
29 *4494:B1 *228:28 5.12344e-05
30 *4494:B1 *228:30 0.000105651
31 *4497:A *228:76 0.000148189
32 *4512:A2 *228:70 2.51343e-06
33 *4515:B *228:28 0.000452776
34 *4515:B *228:30 4.66203e-05
35 *4517:A1 *228:22 0.000331057
36 *4518:B1 *4491:A 4.58192e-05
37 *4518:B1 *228:30 5.80706e-06
38 *4525:A1 *228:62 2.51343e-06
39 *4525:C1 *4556:A2 6.27272e-06
40 *4525:C1 *228:70 1.12484e-05
41 *4538:A2 *4491:A 9.47613e-05
42 *4539:A2 *228:62 2.11419e-05
43 *4541:A *228:76 0.000286725
44 *4541:C_N *228:76 9.47456e-05
45 *4545:B1 *4524:B1 0.000243856
46 *4549:A2 *228:14 5.33005e-05
47 *4549:B1 *228:14 5.17614e-05
48 *4549:B1 *228:22 2.89114e-05
49 *4555:A2 *228:14 0
50 *4556:A1 *4556:A2 1.24469e-05
51 *4556:A1 *228:70 0.000140608
52 *4561:B1 *228:22 0.00010326
53 *4562:B1 *228:14 0.000128154
54 *4566:A2 *228:62 0.000536416
55 *4571:B1 *4491:A 0.000228558
56 *4589:A3 *228:14 0.000149489
57 *62:14 *228:22 0.000282973
58 *65:40 *228:30 0.000115873
59 *90:10 *4524:B1 0
60 *90:12 *4524:B1 1.98839e-05
61 *107:10 *228:70 5.52302e-05
62 *112:20 *228:62 0.000515385
63 *130:26 *228:62 0
64 *150:27 *228:62 5.74499e-06
65 *160:68 *228:62 1.94945e-05
66 *169:43 *228:22 2.09897e-05
67 *179:78 *228:28 0
68 *184:10 *4491:A 5.71472e-05
69 *185:49 *228:28 0
70 *186:18 *228:28 4.43256e-05
71 *196:6 *228:14 0.000800072
72 *196:16 *228:14 7.43578e-06
73 *218:8 *228:28 0.000162138
74 *222:12 *228:22 0.000282977
75 *222:39 *228:22 0.00060008
76 *223:14 *228:62 0.000136951
77 *223:14 *228:70 5.33978e-05
*RES
1 *4659:X *228:14 38.2643 
2 *228:14 *228:22 21.8036 
3 *228:22 *228:28 11.5893 
4 *228:28 *228:30 4.375 
5 *228:30 *4491:A 18.8357 
6 *228:30 *4516:A 13.8 
7 *228:28 *228:62 36.3651 
8 *228:62 *228:70 21.2232 
9 *228:70 *228:76 17.9286 
10 *228:76 *4524:B1 29.3357 
11 *228:76 *4545:A1 9.3 
12 *228:70 *4558:B 9.3 
13 *228:62 *4556:A2 14.0768 
14 *228:22 *4515:A 9.3 
15 *228:14 *4549:B2 9.72857 
*END

*D_NET *229 0.00811327
*CONN
*I *4523:C I *D sky130_fd_sc_hd__or4_1
*I *4485:B I *D sky130_fd_sc_hd__nand2_2
*I *4569:A1_N I *D sky130_fd_sc_hd__a2bb2o_1
*I *4533:A2 I *D sky130_fd_sc_hd__a21o_1
*I *4524:A2 I *D sky130_fd_sc_hd__a21o_1
*I *4687:X O *D sky130_fd_sc_hd__buf_1
*CAP
1 *4523:C 0
2 *4485:B 0.000114345
3 *4569:A1_N 4.5253e-05
4 *4533:A2 2.23854e-05
5 *4524:A2 3.39643e-05
6 *4687:X 2.23854e-05
7 *229:38 0.000392095
8 *229:30 0.000345878
9 *229:17 0.000780074
10 *229:6 0.000700656
11 *4485:B *4568:A1 9.41642e-05
12 *4485:B *4636:A 0.000193118
13 *4524:A2 *242:38 5.7661e-06
14 *4569:A1_N *4568:A1 9.90367e-05
15 *229:17 *242:38 0.0017135
16 *229:30 *242:34 0.000160403
17 *229:30 *242:38 2.89016e-05
18 *229:38 *4568:A1 0.000111796
19 *229:38 *4636:A 0.000193118
20 *229:38 *231:18 1.00375e-05
21 *229:38 *242:23 7.42426e-05
22 *229:38 *242:34 3.51442e-05
23 *4485:A *4485:B 1.02504e-05
24 *4534:A2 *229:30 5.03787e-05
25 *4569:A2_N *4485:B 8.27532e-05
26 *4569:A2_N *4569:A1_N 5.71472e-05
27 *4573:A2 *4485:B 8.76484e-05
28 *4573:A2 *229:30 0
29 *4573:A2 *229:38 0
30 *4687:A *4524:A2 0
31 *4687:A *229:6 0
32 *75:8 *229:17 0.000475197
33 *222:39 *229:17 0.00209088
34 *222:39 *229:30 8.27532e-05
*RES
1 *4687:X *229:6 9.72857 
2 *229:6 *4524:A2 10.2643 
3 *229:6 *229:17 30.5179 
4 *229:17 *4533:A2 9.72857 
5 *229:17 *229:30 7.69643 
6 *229:30 *229:38 10.1429 
7 *229:38 *4569:A1_N 10.675 
8 *229:38 *4485:B 21.8 
9 *229:30 *4523:C 13.8 
*END

*D_NET *230 0.0180575
*CONN
*I *4543:A1 I *D sky130_fd_sc_hd__a31o_1
*I *4506:B I *D sky130_fd_sc_hd__nor2_2
*I *4577:A I *D sky130_fd_sc_hd__or2_1
*I *4570:B2 I *D sky130_fd_sc_hd__a22o_1
*I *4489:A1 I *D sky130_fd_sc_hd__a32o_1
*I *4488:A I *D sky130_fd_sc_hd__nor2_1
*I *4568:A2 I *D sky130_fd_sc_hd__a31o_1
*I *4633:A I *D sky130_fd_sc_hd__clkbuf_1
*I *4660:X O *D sky130_fd_sc_hd__buf_2
*CAP
1 *4543:A1 0
2 *4506:B 5.18278e-05
3 *4577:A 0.000538495
4 *4570:B2 5.67084e-05
5 *4489:A1 0
6 *4488:A 0.00013544
7 *4568:A2 0.000377366
8 *4633:A 4.77561e-05
9 *4660:X 0.000747566
10 *230:81 0.000682159
11 *230:68 0.00102562
12 *230:44 0.000329195
13 *230:22 0.00172545
14 *230:16 0.00184861
15 *230:14 0.00160058
16 *230:10 0.00111654
17 *4568:A2 *4656:A 7.68124e-05
18 *4570:B2 *244:10 0.000148182
19 *4577:A *4506:A 7.83659e-05
20 *4577:A *243:16 0
21 *4577:A *243:18 0
22 *230:10 *236:21 0.000281071
23 *230:10 *240:8 2.55587e-05
24 *230:14 *4480:A 7.6644e-05
25 *230:22 *4656:A 4.25619e-05
26 *230:22 *239:14 3.92757e-05
27 *230:68 *4496:B 1.02936e-05
28 *230:68 *244:10 9.91086e-05
29 *4459:A *230:10 2.05938e-05
30 *4459:A *230:14 2.8266e-06
31 *4481:A *4568:A2 0.000115467
32 *4482:A_N *4577:A 0
33 *4489:B1 *4488:A 0.00020042
34 *4489:B1 *230:44 1.02504e-05
35 *4490:B *4506:B 0.000115206
36 *4490:B *230:68 1.02821e-05
37 *4490:B *230:81 0.000526414
38 *4509:A1 *4488:A 0
39 *4509:A1 *230:44 0
40 *4509:A2 *4488:A 5.71472e-05
41 *4517:A3 *4568:A2 1.46624e-05
42 *4517:B1 *4633:A 0.000178847
43 *4543:B1 *230:10 1.02504e-05
44 *4543:B1 *230:14 0.000127446
45 *4568:A3 *4568:A2 0.00014576
46 *4570:B1 *4570:B2 5.80706e-06
47 *4571:B1 *230:16 0.000287072
48 *4571:B1 *230:22 0.000181831
49 *4571:B1 *230:68 0.000302794
50 *4586:B1 *4577:A 0.00010326
51 *4634:A *230:10 8.27184e-06
52 *93:10 *230:10 0
53 *130:34 *4577:A 0.000435938
54 *130:34 *4633:A 0.000178847
55 *147:22 *230:68 7.77751e-05
56 *148:42 *4568:A2 0.000751746
57 *148:42 *230:22 0.000146474
58 *158:64 *230:14 0
59 *158:64 *230:44 0
60 *160:35 *230:22 0.0014716
61 *173:8 *230:68 0.000271339
62 *179:99 *4568:A2 2.39876e-05
63 *180:63 *230:10 0
64 *180:63 *230:14 0
65 *181:6 *4488:A 5.52238e-05
66 *189:14 *4570:B2 0.000123295
67 *189:14 *230:68 6.55276e-05
68 *189:34 *230:68 1.24368e-05
69 *196:33 *4568:A2 0.000241584
70 *199:12 *4506:B 8.76257e-05
71 *199:12 *4570:B2 0
72 *199:12 *230:81 0.000528337
*RES
1 *4660:X *230:10 23.675 
2 *230:10 *230:14 11 
3 *230:14 *230:16 5.05357 
4 *230:16 *230:22 23.8214 
5 *230:22 *4633:A 15.5679 
6 *230:22 *4568:A2 25.7643 
7 *230:16 *230:44 7.66071 
8 *230:44 *4488:A 17.1929 
9 *230:44 *4489:A1 13.8 
10 *230:14 *230:68 16.6429 
11 *230:68 *4570:B2 15.7464 
12 *230:68 *230:81 9.55357 
13 *230:81 *4577:A 27.2643 
14 *230:81 *4506:B 11.2107 
15 *230:10 *4543:A1 13.8 
*END

*D_NET *231 0.0195417
*CONN
*I *4497:B I *D sky130_fd_sc_hd__nor2_1
*I *4631:A I *D sky130_fd_sc_hd__clkbuf_1
*I *4484:B I *D sky130_fd_sc_hd__xor2_1
*I *4545:A2 I *D sky130_fd_sc_hd__a31o_1
*I *4481:B I *D sky130_fd_sc_hd__nand2_1
*I *4661:X O *D sky130_fd_sc_hd__clkbuf_2
*CAP
1 *4497:B 3.61152e-05
2 *4631:A 0.000521393
3 *4484:B 0.000589114
4 *4545:A2 0.000103635
5 *4481:B 0.000109098
6 *4661:X 0.0013043
7 *231:69 0.000875394
8 *231:41 0.000780703
9 *231:39 0.00181558
10 *231:18 0.00200882
11 *231:12 0.00179429
12 *4481:B *4636:A 0
13 *4484:B *4484:A 0
14 *4484:B *4540:B 0.00014983
15 *4484:B *244:116 0
16 *4631:A *237:14 2.89114e-05
17 *231:18 *4568:A1 0.000100823
18 *231:18 *4636:A 0
19 *4466:A *231:12 0.00014285
20 *4481:A *4481:B 3.2534e-05
21 *4524:B1 *4484:B 0
22 *4524:B1 *4545:A2 8.90371e-05
23 *4524:B1 *231:39 9.90431e-05
24 *4524:B1 *231:41 0.000140933
25 *4533:B1 *231:12 0.000100823
26 *4536:A2 *231:39 0.000928001
27 *4541:A *4631:A 0.000127019
28 *4541:A *231:69 1.41029e-05
29 *4541:C_N *4484:B 7.79781e-06
30 *4544:B *4481:B 5.52302e-05
31 *4545:B1 *231:39 4.51317e-05
32 *4545:B1 *231:69 0
33 *4550:C *231:39 1.46231e-05
34 *4551:A *231:12 0.000264428
35 *4555:A1 *231:12 0.00014285
36 *4559:A2 *4631:A 7.90803e-05
37 *4559:A2 *231:69 0.000353988
38 *4572:A2 *4481:B 0.000102545
39 *4584:A0 *4631:A 0.000107503
40 *4687:A *4484:B 0.000158474
41 *90:10 *4484:B 0.000125731
42 *90:12 *4545:A2 1.55885e-05
43 *99:12 *231:39 8.07397e-06
44 *99:37 *231:18 0.000561379
45 *107:10 *4631:A 7.6644e-05
46 *109:18 *4481:B 1.08359e-05
47 *109:18 *231:18 8.79776e-05
48 *109:18 *231:39 0.00151348
49 *130:26 *4631:A 0
50 *154:34 *231:12 0.00143663
51 *158:86 *4481:B 1.40415e-05
52 *158:100 *4481:B 5.30853e-06
53 *176:20 *4497:B 4.58194e-05
54 *180:25 *231:39 7.92229e-06
55 *185:68 *231:12 0
56 *190:8 *4497:B 9.41642e-05
57 *224:40 *4631:A 0.000120655
58 *227:43 *231:12 2.77289e-05
59 *227:57 *231:12 0.000972909
60 *227:57 *231:39 0.000981389
61 *227:65 *231:39 0.000145451
62 *228:76 *4484:B 5.59013e-05
63 *228:76 *231:69 0
64 *229:38 *231:18 1.00375e-05
*RES
1 *4661:X *231:12 47.2821 
2 *231:12 *231:18 12.2143 
3 *231:18 *4481:B 16.4071 
4 *231:18 *231:39 34.75 
5 *231:39 *231:41 1.35714 
6 *231:41 *4545:A2 10.9786 
7 *231:41 *4484:B 30.6571 
8 *231:39 *231:69 11 
9 *231:69 *4631:A 24.5143 
10 *231:69 *4497:B 14.7464 
*END

*D_NET *232 0.00444116
*CONN
*I *4463:A I *D sky130_fd_sc_hd__or2_1
*I *4462:S I *D sky130_fd_sc_hd__mux2_8
*I *4476:A1 I *D sky130_fd_sc_hd__o21ai_4
*I *4475:A1 I *D sky130_fd_sc_hd__o21a_4
*I *4460:A I *D sky130_fd_sc_hd__or2_4
*I *4662:X O *D sky130_fd_sc_hd__buf_2
*CAP
1 *4463:A 0.00030716
2 *4462:S 0
3 *4476:A1 0.000149067
4 *4475:A1 9.49072e-05
5 *4460:A 3.72884e-05
6 *4662:X 7.91904e-05
7 *232:49 0.00042223
8 *232:27 0.000837942
9 *232:10 0.000796801
10 *232:6 0.000359804
11 *4463:A *4462:A1 7.1724e-05
12 *4463:A *253:10 0.00014983
13 *232:27 *4474:B 0.000800042
14 *232:27 *4615:A 0
15 *232:49 *4462:A1 1.41706e-05
16 *4460:B *232:49 0
17 *4474:A *232:27 0.000263857
18 *4474:A *232:49 0
19 *4475:A2 *4476:A1 0
20 *4476:B1 *4476:A1 0
21 *167:6 *4475:A1 5.71472e-05
*RES
1 *4662:X *232:6 10.2464 
2 *232:6 *232:10 2.91071 
3 *232:10 *4460:A 9.83571 
4 *232:10 *232:27 23.1964 
5 *232:27 *4475:A1 11.0679 
6 *232:27 *4476:A1 20.55 
7 *232:6 *232:49 6.44643 
8 *232:49 *4462:S 4.5 
9 *232:49 *4463:A 21.2107 
*END

*D_NET *233 0.000814911
*CONN
*I *4659:A I *D sky130_fd_sc_hd__buf_2
*I *4503:A I *D sky130_fd_sc_hd__nand2_4
*I *4553:A2 I *D sky130_fd_sc_hd__a311o_1
*I *4628:X O *D sky130_fd_sc_hd__clkbuf_1
*CAP
1 *4659:A 0
2 *4503:A 8.08016e-05
3 *4553:A2 4.20369e-05
4 *4628:X 4.72782e-05
5 *233:19 0.000119043
6 *233:6 0.000127557
7 *4553:A2 *4591:A1 9.0573e-05
8 *4553:A2 *236:70 1.02504e-05
9 *4589:A3 *4503:A 0.0001827
10 *4589:A3 *233:6 1.21258e-05
11 *4591:A2 *4553:A2 0.000102545
*RES
1 *4628:X *233:6 9.83571 
2 *233:6 *4553:A2 19.6393 
3 *233:6 *233:19 0.732143 
4 *233:19 *4503:A 11.0679 
5 *233:19 *4659:A 9.3 
*END

*D_NET *234 0.00560127
*CONN
*I *4658:A I *D sky130_fd_sc_hd__buf_2
*I *4576:A1 I *D sky130_fd_sc_hd__a31o_1
*I *4574:A I *D sky130_fd_sc_hd__nor2_1
*I *4505:B1 I *D sky130_fd_sc_hd__a31o_1
*I *4629:X O *D sky130_fd_sc_hd__clkbuf_1
*CAP
1 *4658:A 6.51635e-05
2 *4576:A1 1.91209e-05
3 *4574:A 1.63101e-05
4 *4505:B1 0.00116045
5 *4629:X 0
6 *234:18 0.0014135
7 *234:12 0.0006639
8 *234:6 0.000473204
9 *4505:A1 *4505:B1 0.000394701
10 *4570:B1 *4505:B1 6.4549e-05
11 *4576:A2 *234:18 1.74352e-05
12 *4581:A3 *234:12 4.0342e-06
13 *4581:A3 *234:18 3.61629e-06
14 *154:10 *234:12 0
15 *154:25 *4658:A 0
16 *154:25 *234:12 0
17 *155:65 *4505:B1 0.000372248
18 *155:65 *4574:A 4.73656e-05
19 *157:10 *4658:A 5.52238e-05
20 *168:12 *4505:B1 0.000370526
21 *168:12 *4574:A 5.59013e-05
22 *175:23 *4505:B1 0.00021526
23 *199:56 *4576:A1 0
24 *199:56 *234:18 0.00018877
*RES
1 *4629:X *234:6 13.8 
2 *234:6 *234:12 11.3571 
3 *234:12 *234:18 7.92857 
4 *234:18 *4505:B1 37.5143 
5 *234:18 *4574:A 14.5321 
6 *234:12 *4576:A1 9.72857 
7 *234:6 *4658:A 15.0679 
*END

*D_NET *235 0.00253703
*CONN
*I *4456:A1 I *D sky130_fd_sc_hd__mux2_1
*I *4648:X O *D sky130_fd_sc_hd__buf_1
*CAP
1 *4456:A1 0.00050081
2 *4648:X 0.00050081
3 *4456:A1 *4456:S 0.000139907
4 *4456:A1 *256:12 0
5 *4456:A0 *4456:A1 5.71472e-05
6 *4478:A0 *4456:A1 4.25716e-05
7 *4478:A1 *4456:A1 0.00114517
8 *4617:D *4456:A1 0.000150611
*RES
1 *4648:X *4456:A1 42.7429 
*END

*D_NET *236 0.00908929
*CONN
*I *4591:A1 I *D sky130_fd_sc_hd__a21oi_1
*I *4553:A1 I *D sky130_fd_sc_hd__a311o_1
*I *4589:A1 I *D sky130_fd_sc_hd__o31a_1
*I *4507:A1 I *D sky130_fd_sc_hd__o22a_1
*I *4542:B1 I *D sky130_fd_sc_hd__o211a_1
*I *4654:A I *D sky130_fd_sc_hd__clkbuf_2
*I *4630:X O *D sky130_fd_sc_hd__clkbuf_1
*CAP
1 *4591:A1 0.00035347
2 *4553:A1 0
3 *4589:A1 0.000176357
4 *4507:A1 0.000389908
5 *4542:B1 0
6 *4654:A 0
7 *4630:X 0.000160059
8 *236:70 0.000484435
9 *236:51 0.000425269
10 *236:25 0.00056376
11 *236:21 0.000703825
12 *236:12 0.000572086
13 *4589:A1 *238:16 2.89016e-05
14 *4589:A1 *238:24 7.43578e-06
15 *236:12 *4459:B 0
16 *236:25 *238:24 0.000193025
17 *236:51 *238:24 0.000152567
18 *4493:A *236:12 0
19 *4509:A1 *236:12 3.57844e-05
20 *4542:A2 *236:25 1.02504e-05
21 *4542:C1 *4507:A1 6.20656e-05
22 *4551:A *236:70 9.91086e-05
23 *4553:A2 *4591:A1 9.0573e-05
24 *4553:A2 *236:70 1.02504e-05
25 *4579:A *4589:A1 0.000232148
26 *4589:A3 *4589:A1 5.58941e-05
27 *4589:B1 *236:25 0.000185297
28 *4589:B1 *236:51 6.02699e-05
29 *4591:A2 *4591:A1 0.000471021
30 *4591:A2 *236:51 5.31541e-05
31 *4591:A2 *236:70 0.000122993
32 *4591:B1 *4591:A1 2.44318e-05
33 *4666:A *4591:A1 0.000723821
34 *4666:A *236:51 0.000196269
35 *4666:A *236:70 0.000360094
36 *118:10 *4507:A1 0.000195547
37 *147:14 *4507:A1 0.000100735
38 *147:22 *4507:A1 9.55563e-05
39 *154:47 *236:12 1.31516e-05
40 *160:22 *4589:A1 5.41794e-05
41 *160:22 *236:25 0
42 *164:29 *4507:A1 0.000572021
43 *168:26 *4507:A1 5.52302e-05
44 *168:26 *236:25 0.000150632
45 *186:18 *236:12 0.00012401
46 *218:8 *236:12 1.92905e-05
47 *218:8 *236:21 0.000423338
48 *230:10 *236:21 0.000281071
*RES
1 *4630:X *236:12 21.6929 
2 *236:12 *4654:A 9.3 
3 *236:12 *236:21 15.3036 
4 *236:21 *236:25 9.48214 
5 *236:25 *4542:B1 9.3 
6 *236:25 *4507:A1 29.1393 
7 *236:21 *236:51 4.125 
8 *236:51 *4589:A1 25.8357 
9 *236:51 *236:70 4.67857 
10 *236:70 *4553:A1 13.8 
11 *236:70 *4591:A1 25.2286 
*END

*D_NET *237 0.00359091
*CONN
*I *4657:A I *D sky130_fd_sc_hd__clkbuf_2
*I *4483:B I *D sky130_fd_sc_hd__xnor2_1
*I *4557:C I *D sky130_fd_sc_hd__and3_4
*I *4499:A2 I *D sky130_fd_sc_hd__o21ai_2
*I *4487:B I *D sky130_fd_sc_hd__nand2b_4
*I *4631:X O *D sky130_fd_sc_hd__clkbuf_1
*CAP
1 *4657:A 0
2 *4483:B 0
3 *4557:C 0.000196859
4 *4499:A2 0.000425078
5 *4487:B 8.56566e-05
6 *4631:X 0.000149243
7 *237:24 0.000673177
8 *237:20 0.000359302
9 *237:18 0.000169855
10 *237:14 0.000319098
11 *237:14 *244:94 9.25014e-06
12 *237:14 *244:105 0.000125731
13 *237:18 *4483:A 0.000137983
14 *4558:A *237:14 6.5185e-05
15 *4631:A *237:14 2.89114e-05
16 *180:8 *4557:C 0.000419606
17 *180:8 *237:24 0.000320738
18 *180:50 *4499:A2 1.03968e-05
19 *223:61 *4499:A2 2.89114e-05
20 *223:67 *4499:A2 2.59355e-05
21 *224:28 *4499:A2 0
22 *224:40 *4499:A2 3.99958e-05
*RES
1 *4631:X *237:14 21.8357 
2 *237:14 *237:18 3.42857 
3 *237:18 *237:20 4.5 
4 *237:20 *237:24 8.57143 
5 *237:24 *4487:B 10.5679 
6 *237:24 *4499:A2 14.675 
7 *237:20 *4557:C 19.0857 
8 *237:18 *4483:B 9.3 
9 *237:14 *4657:A 9.3 
*END

*D_NET *238 0.0121897
*CONN
*I *4511:A3 I *D sky130_fd_sc_hd__a32o_1
*I *4562:A2 I *D sky130_fd_sc_hd__a22o_1
*I *4661:A I *D sky130_fd_sc_hd__clkbuf_2
*I *4589:A2 I *D sky130_fd_sc_hd__o31a_1
*I *4496:B I *D sky130_fd_sc_hd__nand2_2
*I *4480:B I *D sky130_fd_sc_hd__nand2_2
*I *4632:X O *D sky130_fd_sc_hd__clkbuf_1
*CAP
1 *4511:A3 0
2 *4562:A2 0.000161069
3 *4661:A 8.44293e-05
4 *4589:A2 0
5 *4496:B 0.000221803
6 *4480:B 0.000138714
7 *4632:X 9.31148e-05
8 *238:58 0.00123422
9 *238:24 0.000829039
10 *238:16 0.000716745
11 *238:10 0.00048887
12 *238:8 0.00132249
13 *4562:A2 *257:16 0
14 *4542:A2 *238:24 0.000378429
15 *4562:A1 *4562:A2 0.000119684
16 *4571:B1 *4480:B 0.000309253
17 *4571:B1 *4496:B 0.000438775
18 *4579:A *238:16 9.40041e-05
19 *4579:A *238:24 6.77968e-05
20 *4588:A3 *238:16 2.09897e-05
21 *4589:A1 *238:16 2.89016e-05
22 *4589:A1 *238:24 7.43578e-06
23 *4590:A1 *238:16 0
24 *4590:B2 *238:10 9.25014e-06
25 *4590:B2 *238:16 0.000126439
26 *4591:A2 *238:24 0.000549564
27 *4592:A1 *238:58 0.000228558
28 *4592:S *238:10 0.000384988
29 *4592:S *238:58 0.000694776
30 *4666:A *238:58 0
31 *147:10 *238:10 0.000384988
32 *147:10 *238:58 0.000546594
33 *147:12 *238:10 6.98302e-05
34 *147:12 *238:16 0.000221163
35 *147:22 *4496:B 5.71472e-05
36 *154:34 *4661:A 0.000181796
37 *171:17 *238:10 0
38 *175:83 *238:24 0.000378429
39 *199:12 *4496:B 6.05161e-06
40 *216:6 *238:58 0.00123846
41 *230:68 *4496:B 1.02936e-05
42 *236:25 *238:24 0.000193025
43 *236:51 *238:24 0.000152567
*RES
1 *4632:X *238:8 14.7464 
2 *238:8 *238:10 5.89286 
3 *238:10 *238:16 10.3571 
4 *238:16 *238:24 23.1429 
5 *238:24 *4480:B 12.3 
6 *238:24 *4496:B 14.3536 
7 *238:16 *4589:A2 9.3 
8 *238:10 *4661:A 15.5679 
9 *238:8 *238:58 34.5 
10 *238:58 *4562:A2 21.6929 
11 *238:58 *4511:A3 9.3 
*END

*D_NET *239 0.00332243
*CONN
*I *4656:A I *D sky130_fd_sc_hd__buf_2
*I *4501:A1 I *D sky130_fd_sc_hd__o221a_1
*I *4518:C1 I *D sky130_fd_sc_hd__a211o_1
*I *4633:X O *D sky130_fd_sc_hd__clkbuf_1
*CAP
1 *4656:A 0.000148987
2 *4501:A1 0
3 *4518:C1 0.000146912
4 *4633:X 0.000147071
5 *239:14 0.000539314
6 *239:8 0.00068846
7 *4656:A *243:56 9.71197e-05
8 *4479:A *4518:C1 9.25014e-06
9 *4495:A *239:14 0.000101085
10 *4495:B *4518:C1 0.000149543
11 *4495:B *239:14 0.000121063
12 *4500:B *4656:A 0
13 *4517:A2 *4518:C1 0.000219244
14 *4517:A2 *4656:A 7.79781e-06
15 *4517:A2 *239:14 0.000176451
16 *4517:A3 *4656:A 0.000169939
17 *4517:B1 *239:8 9.0145e-05
18 *4518:B1 *4518:C1 9.60875e-05
19 *4518:B1 *239:14 0
20 *4568:A2 *4656:A 7.68124e-05
21 *148:42 *239:14 2.87566e-05
22 *168:30 *4656:A 9.71197e-05
23 *175:48 *4518:C1 9.80173e-05
24 *180:59 *4518:C1 1.58163e-05
25 *180:59 *239:14 1.56e-05
26 *230:22 *4656:A 4.25619e-05
27 *230:22 *239:14 3.92757e-05
*RES
1 *4633:X *239:8 15.5679 
2 *239:8 *239:14 13.9643 
3 *239:14 *4518:C1 22.6393 
4 *239:14 *4501:A1 9.3 
5 *239:8 *4656:A 17.9071 
*END

*D_NET *240 0.00261918
*CONN
*I *4579:C I *D sky130_fd_sc_hd__and4_1
*I *4588:A2 I *D sky130_fd_sc_hd__a31o_1
*I *4660:A I *D sky130_fd_sc_hd__buf_2
*I *4634:X O *D sky130_fd_sc_hd__clkbuf_1
*CAP
1 *4579:C 0.000395177
2 *4588:A2 0
3 *4660:A 0
4 *4634:X 9.26682e-05
5 *240:21 0.000642383
6 *240:8 0.000339875
7 *4579:A *4579:C 4.40211e-05
8 *4588:A1 *240:21 0.000222892
9 *4588:A3 *240:21 4.51691e-05
10 *4588:B1 *4579:C 0.000460481
11 *4634:A *240:8 5.52238e-05
12 *164:16 *240:8 0.000138919
13 *164:16 *240:21 0.000156816
14 *230:10 *240:8 2.55587e-05
*RES
1 *4634:X *240:8 11.8 
2 *240:8 *4660:A 9.3 
3 *240:8 *240:21 14.8571 
4 *240:21 *4588:A2 9.3 
5 *240:21 *4579:C 15.0857 
*END

*D_NET *241 0.00537076
*CONN
*I *4655:A I *D sky130_fd_sc_hd__buf_2
*I *4457:A I *D sky130_fd_sc_hd__clkinv_1
*I *4519:A1 I *D sky130_fd_sc_hd__a21o_1
*I *4635:X O *D sky130_fd_sc_hd__clkbuf_1
*CAP
1 *4655:A 0
2 *4457:A 5.90413e-05
3 *4519:A1 0.000803155
4 *4635:X 0.000186263
5 *241:27 0.000343219
6 *241:8 0.0012736
7 *4500:B *4519:A1 0
8 *4501:B2 *4519:A1 0.000140554
9 *4520:B *4519:A1 6.20091e-06
10 *4520:C *4519:A1 0.000147114
11 *4521:A3 *4519:A1 0
12 *4566:A2 *241:27 0.000753287
13 *4572:A3 *4519:A1 9.32966e-05
14 *4572:A3 *241:27 8.41829e-05
15 *150:27 *4457:A 9.3111e-05
16 *150:27 *241:27 1.21289e-05
17 *175:56 *4519:A1 0.000144773
18 *179:42 *4519:A1 2.44318e-05
19 *192:29 *4519:A1 5.52302e-05
20 *224:12 *241:8 0.000268403
21 *228:62 *4457:A 8.56752e-05
22 *228:62 *241:27 0.000797099
*RES
1 *4635:X *241:8 16.3893 
2 *241:8 *4519:A1 29.55 
3 *241:8 *241:27 15.6071 
4 *241:27 *4457:A 11.0679 
5 *241:27 *4655:A 9.3 
*END

*D_NET *242 0.00782227
*CONN
*I *4533:A1 I *D sky130_fd_sc_hd__a21o_1
*I *4524:A1 I *D sky130_fd_sc_hd__a21o_1
*I *4540:B I *D sky130_fd_sc_hd__nand2_1
*I *4523:A I *D sky130_fd_sc_hd__or4_1
*I *4568:A1 I *D sky130_fd_sc_hd__a31o_1
*I *4636:X O *D sky130_fd_sc_hd__buf_1
*CAP
1 *4533:A1 0
2 *4524:A1 0
3 *4540:B 0.000171585
4 *4523:A 0
5 *4568:A1 0.00021692
6 *4636:X 4.42654e-05
7 *242:38 0.00169532
8 *242:34 0.00165898
9 *242:23 0.0001996
10 *242:8 0.000325544
11 *4484:B *4540:B 0.00014983
12 *4485:B *4568:A1 9.41642e-05
13 *4524:A2 *242:38 5.7661e-06
14 *4524:B1 *4540:B 0.000212851
15 *4532:A *242:23 4.46186e-06
16 *4532:A *242:34 1.95304e-05
17 *4534:A2 *242:34 0
18 *4569:A1_N *4568:A1 9.90367e-05
19 *4569:A2_N *4568:A1 3.53079e-05
20 *4569:B1 *4568:A1 5.52238e-05
21 *4569:B2 *4568:A1 3.98517e-05
22 *4572:B1 *242:34 0
23 *99:37 *242:8 1.40415e-05
24 *109:18 *4568:A1 4.7024e-05
25 *109:18 *242:23 2.83916e-05
26 *169:113 *242:34 6.2589e-06
27 *227:57 *4568:A1 0.000473499
28 *229:17 *242:38 0.0017135
29 *229:30 *242:34 0.000160403
30 *229:30 *242:38 2.89016e-05
31 *229:38 *4568:A1 0.000111796
32 *229:38 *242:23 7.42426e-05
33 *229:38 *242:34 3.51442e-05
34 *231:18 *4568:A1 0.000100823
*RES
1 *4636:X *242:8 14.3357 
2 *242:8 *4568:A1 21.3179 
3 *242:8 *242:23 1.64286 
4 *242:23 *4523:A 13.8 
5 *242:23 *242:34 7.66071 
6 *242:34 *242:38 30.5357 
7 *242:38 *4540:B 23.8179 
8 *242:38 *4524:A1 9.3 
9 *242:34 *4533:A1 9.3 
*END

*D_NET *243 0.0223594
*CONN
*I *4579:B I *D sky130_fd_sc_hd__and4_1
*I *4480:A I *D sky130_fd_sc_hd__nand2_2
*I *4459:B I *D sky130_fd_sc_hd__or2_1
*I *4636:A I *D sky130_fd_sc_hd__buf_1
*I *4635:A I *D sky130_fd_sc_hd__clkbuf_1
*I *4506:A I *D sky130_fd_sc_hd__nor2_2
*I *4490:A_N I *D sky130_fd_sc_hd__and2b_4
*I *4637:X O *D sky130_fd_sc_hd__buf_1
*CAP
1 *4579:B 0.000294357
2 *4480:A 0.000105877
3 *4459:B 0.000186021
4 *4636:A 0.000480461
5 *4635:A 5.47323e-05
6 *4506:A 0.000213603
7 *4490:A_N 4.44452e-05
8 *4637:X 0.00197649
9 *243:56 0.00159228
10 *243:52 0.00174449
11 *243:46 0.00190418
12 *243:18 0.000305713
13 *243:16 0.00211028
14 *243:10 0.00303654
15 *243:10 *4472:A2 4.22627e-05
16 *243:10 *246:12 5.45771e-05
17 *243:46 *244:10 9.90367e-05
18 *4472:B1 *243:10 8.02709e-05
19 *4481:A *4636:A 0.000123288
20 *4481:B *4636:A 0
21 *4485:A *4636:A 0.000124479
22 *4485:B *4636:A 0.000193118
23 *4493:A *4459:B 0
24 *4500:B *4636:A 0
25 *4509:A1 *4459:B 0
26 *4509:A1 *243:52 0
27 *4517:A3 *4636:A 2.88517e-05
28 *4521:B1 *4636:A 2.94103e-05
29 *4572:A1 *4636:A 0.000119159
30 *4572:A2 *4636:A 0
31 *4573:A2 *4636:A 6.03387e-05
32 *4573:B1 *4636:A 0.000100831
33 *4577:A *4506:A 7.83659e-05
34 *4577:A *243:16 0
35 *4577:A *243:18 0
36 *4583:A1 *243:10 0
37 *4583:A1 *243:16 0
38 *4586:A1 *243:10 0.00015304
39 *4586:A2 *243:10 1.81805e-05
40 *4586:A2 *243:16 3.69697e-05
41 *4586:B1 *4579:B 0.000121573
42 *4586:B1 *243:16 0
43 *4586:B1 *243:46 0.000274288
44 *4587:A3 *243:16 0
45 *4588:B1 *4579:B 5.33005e-05
46 *4656:A *243:56 9.71197e-05
47 *65:38 *4635:A 1.15172e-05
48 *124:10 *243:16 0
49 *150:27 *4636:A 5.86416e-05
50 *154:25 *4579:B 0.00018372
51 *154:34 *4579:B 2.61099e-05
52 *158:64 *4459:B 0
53 *158:64 *4480:A 0
54 *158:64 *243:52 0
55 *160:22 *243:46 0.000653871
56 *160:22 *243:52 0.000485543
57 *165:10 *243:10 0.00223116
58 *168:26 *243:56 0.000146321
59 *168:30 *4635:A 5.03772e-05
60 *168:30 *243:56 0.000893817
61 *171:17 *4579:B 0
62 *171:34 *4579:B 5.52238e-05
63 *180:63 *4480:A 0
64 *183:12 *4490:A_N 0.000100823
65 *183:12 *243:16 5.41794e-05
66 *183:12 *243:18 7.6644e-05
67 *183:18 *243:46 0.000469387
68 *189:34 *4506:A 0.000272371
69 *196:33 *4636:A 5.93879e-05
70 *224:12 *4635:A 0.000152253
71 *224:12 *243:56 0.000170379
72 *229:38 *4636:A 0.000193118
73 *230:14 *4480:A 7.6644e-05
74 *231:18 *4636:A 0
75 *236:12 *4459:B 0
*RES
1 *4637:X *243:10 43.175 
2 *243:10 *243:16 12.9286 
3 *243:16 *243:18 1.03571 
4 *243:18 *4490:A_N 15.1393 
5 *243:18 *4506:A 26.425 
6 *243:16 *243:46 22.6964 
7 *243:46 *243:52 12 
8 *243:52 *243:56 25.1607 
9 *243:56 *4635:A 11.0857 
10 *243:56 *4636:A 31.175 
11 *243:52 *4459:B 16.9607 
12 *243:46 *4480:A 20.2464 
13 *243:10 *4579:B 27.5679 
*END

*D_NET *244 0.0217623
*CONN
*I *4458:A I *D sky130_fd_sc_hd__nor2_2
*I *4540:A I *D sky130_fd_sc_hd__nand2_1
*I *4484:A I *D sky130_fd_sc_hd__xor2_1
*I *4557:A I *D sky130_fd_sc_hd__and3_4
*I *4483:A I *D sky130_fd_sc_hd__xnor2_1
*I *4489:B2 I *D sky130_fd_sc_hd__a32o_1
*I *4556:B2 I *D sky130_fd_sc_hd__o32a_1
*I *4537:A1 I *D sky130_fd_sc_hd__a211o_1
*I *4455:A I *D sky130_fd_sc_hd__inv_4
*I *4482:B I *D sky130_fd_sc_hd__nand2b_4
*I *4638:X O *D sky130_fd_sc_hd__clkbuf_2
*CAP
1 *4458:A 0
2 *4540:A 0.000111156
3 *4484:A 0.000384973
4 *4557:A 0
5 *4483:A 8.52306e-05
6 *4489:B2 2.23854e-05
7 *4556:B2 0.00047225
8 *4537:A1 1.2683e-05
9 *4455:A 0.0012465
10 *4482:B 0.000244052
11 *4638:X 0.000210997
12 *244:116 0.000928957
13 *244:105 0.000578055
14 *244:94 0.000359139
15 *244:88 0.00125868
16 *244:35 0.00030907
17 *244:29 0.00293464
18 *244:25 0.00282437
19 *244:10 0.000974517
20 *4484:B *4484:A 0
21 *4484:B *244:116 0
22 *4489:A2 *244:25 0.000287635
23 *4489:A2 *244:29 5.73227e-05
24 *4489:A3 *244:29 0.000134192
25 *4489:B1 *244:29 1.1671e-05
26 *4497:A *244:105 5.80706e-06
27 *4497:A *244:116 0.000130277
28 *4499:A1 *4455:A 0.00014285
29 *4502:A2 *244:29 0.000226513
30 *4505:A1 *4482:B 0
31 *4507:B1 *244:25 1.74352e-05
32 *4508:B1 *244:25 0.000832071
33 *4510:A3 *244:29 0.000274294
34 *4513:B1 *4556:B2 4.21517e-05
35 *4525:A1 *4556:B2 9.25014e-06
36 *4525:C1 *4556:B2 0.000289147
37 *4535:B *4556:B2 0.000145315
38 *4537:C1 *4455:A 1.04232e-05
39 *4537:C1 *4537:A1 3.99614e-06
40 *4538:A3 *244:29 0.000207082
41 *4538:B1 *244:29 0.000107977
42 *4538:B2 *4556:B2 1.19402e-05
43 *4538:B2 *244:35 0.000106507
44 *4541:C_N *244:116 0.000202128
45 *4542:A2 *244:25 0.000232399
46 *4546:A1 *244:116 0.00049258
47 *4556:A1 *244:35 1.50087e-05
48 *4556:A3 *4556:B2 1.97756e-05
49 *4556:A3 *244:35 5.33005e-05
50 *4556:B1 *4556:B2 1.8493e-05
51 *4558:A *244:88 1.40306e-05
52 *4558:A *244:94 5.982e-05
53 *4558:A *244:105 9.3616e-05
54 *4558:C *244:116 0.000153054
55 *4570:B1 *4482:B 3.34672e-05
56 *4570:B1 *244:10 1.50181e-05
57 *4570:B2 *244:10 0.000148182
58 *4590:A1 *244:10 8.87397e-05
59 *147:22 *244:10 0
60 *148:8 *244:88 2.56601e-05
61 *151:32 *244:88 9.71197e-05
62 *155:20 *4482:B 4.88637e-05
63 *169:12 *4482:B 0.000124352
64 *169:12 *244:10 3.98131e-05
65 *169:16 *244:25 5.22592e-05
66 *169:16 *244:29 1.84421e-05
67 *169:22 *244:29 8.35655e-05
68 *175:12 *4482:B 5.71472e-05
69 *176:10 *4483:A 2.89016e-05
70 *176:10 *244:105 0.000344925
71 *176:10 *244:116 0.000309773
72 *179:12 *244:35 3.17148e-05
73 *180:8 *244:94 0.000120636
74 *180:8 *244:105 2.14474e-05
75 *180:25 *244:116 9.97744e-05
76 *180:50 *4455:A 8.70693e-05
77 *180:50 *244:35 4.43256e-05
78 *183:18 *244:10 9.90367e-05
79 *189:14 *244:25 2.95726e-05
80 *191:8 *244:29 3.14193e-05
81 *191:12 *4556:B2 0.000173909
82 *191:25 *4556:B2 5.38011e-05
83 *192:23 *4455:A 2.6269e-05
84 *199:16 *244:25 0.000256992
85 *223:25 *244:88 0
86 *223:82 *244:94 0
87 *224:14 *4556:B2 0.000122089
88 *224:16 *4556:B2 0.000209754
89 *224:20 *4556:B2 0.000237528
90 *224:20 *244:35 0.000295137
91 *224:24 *4455:A 4.16984e-05
92 *224:24 *244:35 1.55885e-05
93 *224:28 *4455:A 0.000206573
94 *226:10 *244:88 6.42242e-05
95 *228:76 *244:116 0.000140631
96 *230:68 *244:10 9.91086e-05
97 *237:14 *244:94 9.25014e-06
98 *237:14 *244:105 0.000125731
99 *237:18 *4483:A 0.000137983
100 *243:46 *244:10 9.90367e-05
*RES
1 *4638:X *244:10 19.7286 
2 *244:10 *4482:B 19.5321 
3 *244:10 *244:25 19.4107 
4 *244:25 *244:29 42.4107 
5 *244:29 *244:35 10.125 
6 *244:35 *4455:A 13.2643 
7 *244:35 *4537:A1 9.72857 
8 *244:29 *4556:B2 26.5321 
9 *244:25 *4489:B2 9.72857 
10 *4455:A *244:88 32.3 
11 *244:88 *244:94 7.89286 
12 *244:94 *4483:A 15.5679 
13 *244:94 *244:105 4.98214 
14 *244:105 *4557:A 13.8 
15 *244:105 *244:116 19.1964 
16 *244:116 *4484:A 25.05 
17 *244:116 *4540:A 11.0679 
18 *244:88 *4458:A 9.3 
*END

*D_NET *245 0.0062378
*CONN
*I *4613:A I *D sky130_fd_sc_hd__inv_1
*I *4616:A I *D sky130_fd_sc_hd__inv_1
*I *4614:A I *D sky130_fd_sc_hd__inv_1
*I *4468:A I *D sky130_fd_sc_hd__or2_4
*I *4662:A I *D sky130_fd_sc_hd__buf_2
*I *4615:A I *D sky130_fd_sc_hd__inv_1
*I *4639:X O *D sky130_fd_sc_hd__clkbuf_1
*CAP
1 *4613:A 0.000263327
2 *4616:A 0.000409289
3 *4614:A 0
4 *4468:A 0
5 *4662:A 0
6 *4615:A 0.000327302
7 *4639:X 0
8 *245:45 0.000515995
9 *245:16 0.000738671
10 *245:14 0.000904535
11 *245:10 0.00102052
12 *245:6 0.000683972
13 *4468:B *4616:A 0
14 *4468:B *245:14 0.000971331
15 *4468:B *245:45 8.57023e-05
16 *4469:B1 *245:16 5.71472e-05
17 *4621:RESET_B *4613:A 1.67305e-05
18 *4622:RESET_B *4616:A 1.96517e-05
19 *4622:RESET_B *245:10 0
20 *4624:RESET_B *4616:A 1.40749e-05
21 *4639:A *4613:A 6.58195e-05
22 *4639:A *245:10 2.19778e-05
23 *207:16 *245:10 0
24 *209:38 *4615:A 0.000115705
25 *212:8 *4613:A 6.05161e-06
26 *212:10 *4613:A 0
27 *212:10 *245:10 0
28 *212:14 *245:10 0
29 *232:27 *4615:A 0
*RES
1 *4639:X *245:6 13.8 
2 *245:6 *245:10 11.9107 
3 *245:10 *245:14 10.4107 
4 *245:14 *245:16 7.10714 
5 *245:16 *4615:A 24.3848 
6 *245:16 *4662:A 9.3 
7 *245:14 *4468:A 9.3 
8 *245:10 *245:45 2.06696 
9 *245:45 *4614:A 9.3 
10 *245:45 *4616:A 25.5411 
11 *245:6 *4613:A 18.7955 
*END

*D_NET *246 0.00365309
*CONN
*I *4471:A1 I *D sky130_fd_sc_hd__mux2_4
*I *4472:A2 I *D sky130_fd_sc_hd__o21ai_2
*I *4649:X O *D sky130_fd_sc_hd__buf_1
*CAP
1 *4471:A1 0.000137212
2 *4472:A2 0.000126123
3 *4649:X 0.0010152
4 *246:12 0.00127853
5 *4471:A1 *253:10 0.000144623
6 *246:12 *4465:A1 0
7 *246:12 *256:12 0.000460489
8 *4472:B1 *4472:A2 1.24368e-05
9 *4472:B1 *246:12 0.000213179
10 *4637:A *246:12 5.71472e-05
11 *54:8 *4471:A1 3.10821e-05
12 *54:10 *4471:A1 7.49239e-05
13 *165:10 *4472:A2 5.30637e-06
14 *243:10 *4472:A2 4.22627e-05
15 *243:10 *246:12 5.45771e-05
*RES
1 *4649:X *246:12 39.675 
2 *246:12 *4472:A2 11.4964 
3 *246:12 *4471:A1 22.1929 
*END

*D_NET *247 0.012269
*CONN
*I *4454:S I *D sky130_fd_sc_hd__mux2_8
*I *4456:S I *D sky130_fd_sc_hd__mux2_1
*I *4452:A I *D sky130_fd_sc_hd__inv_6
*I *4610:A I *D sky130_fd_sc_hd__inv_1
*I *4611:A I *D sky130_fd_sc_hd__inv_1
*I *4478:S I *D sky130_fd_sc_hd__mux2_8
*I *4470:A I *D sky130_fd_sc_hd__or2_1
*I *4471:S I *D sky130_fd_sc_hd__mux2_4
*I *4465:S I *D sky130_fd_sc_hd__mux2_8
*I *4612:A I *D sky130_fd_sc_hd__inv_1
*I *4640:X O *D sky130_fd_sc_hd__clkbuf_2
*CAP
1 *4454:S 4.21711e-05
2 *4456:S 0.000397173
3 *4452:A 0.000338209
4 *4610:A 0.000110123
5 *4611:A 0.000207283
6 *4478:S 0.000875532
7 *4470:A 0
8 *4471:S 0.000228713
9 *4465:S 0.000425412
10 *4612:A 9.02879e-06
11 *4640:X 0.000294887
12 *247:64 0.000934803
13 *247:41 0.000228713
14 *247:29 0.00047013
15 *247:27 0.00112317
16 *247:21 0.00155956
17 *247:10 0.000349948
18 *4452:A *253:10 0.000196198
19 *4465:S *4465:A1 0.000391669
20 *4465:S *253:10 0
21 *4478:S *4465:A1 0.000188957
22 *4478:S *253:10 0
23 *247:29 *4465:A1 4.02462e-05
24 *247:29 *253:10 0
25 *247:64 *4597:B1 0.000177948
26 *4454:A0 *4452:A 9.7659e-05
27 *4454:A0 *4454:S 2.00884e-05
28 *4456:A0 *4456:S 2.44318e-05
29 *4456:A1 *4456:S 0.000139907
30 *4463:B *4465:S 1.66373e-05
31 *4471:A0 *4471:S 0.000271345
32 *4471:A0 *247:27 4.43256e-05
33 *4472:B1 *4478:S 7.8327e-05
34 *4478:A0 *4452:A 2.65319e-06
35 *4478:A1 *4456:S 0.000276612
36 *4600:A *247:64 0
37 *4618:RESET_B *4610:A 8.48822e-06
38 *4619:RESET_B *4611:A 9.75337e-06
39 *4620:CLK *247:64 0
40 *4620:RESET_B *4612:A 1.14548e-05
41 *4620:RESET_B *247:10 0.000103253
42 *4625:A *247:10 0
43 *4625:A *247:21 0
44 *4625:A *247:64 0
45 *4642:A *4611:A 5.52238e-05
46 *4642:A *247:64 0
47 *54:8 *4452:A 0.000223784
48 *203:14 *4452:A 0.000227729
49 *204:14 *4610:A 9.21958e-05
50 *204:14 *247:64 5.31445e-05
51 *205:16 *247:64 0
52 *206:14 *4612:A 2.3541e-05
53 *206:14 *247:10 0
54 *206:14 *247:27 0.000316184
55 *206:16 *247:27 0.000309273
56 *206:20 *247:27 0.00127316
*RES
1 *4640:X *247:10 18.8179 
2 *247:10 *4612:A 14.0366 
3 *247:10 *247:21 0.732143 
4 *247:21 *247:27 27.6071 
5 *247:27 *247:29 1.03571 
6 *247:29 *4465:S 14.2054 
7 *247:29 *247:41 4.5 
8 *247:41 *4471:S 13.55 
9 *247:41 *4470:A 9.3 
10 *247:27 *4478:S 9.17857 
11 *247:21 *247:64 11.9643 
12 *247:64 *4611:A 17.3223 
13 *247:64 *4610:A 16.3312 
14 *4478:S *4452:A 27.9518 
15 *4478:S *4456:S 16.7911 
16 *4452:A *4454:S 10.2018 
*END

*D_NET *248 0.00458699
*CONN
*I *4464:A2 I *D sky130_fd_sc_hd__o21ai_1
*I *4465:A1 I *D sky130_fd_sc_hd__mux2_8
*I *4650:X O *D sky130_fd_sc_hd__buf_1
*CAP
1 *4464:A2 0.000312724
2 *4465:A1 0.00178436
3 *4650:X 0.00147163
4 *4465:A1 *253:10 0
5 *4465:A1 *256:12 0
6 *4464:A1 *4464:A2 4.43256e-05
7 *4464:B1 *4464:A2 0.000353079
8 *4464:B1 *4465:A1 0
9 *4465:S *4465:A1 0.000391669
10 *4478:S *4465:A1 0.000188957
11 *246:12 *4465:A1 0
12 *247:29 *4465:A1 4.02462e-05
*RES
1 *4650:X *4465:A1 46.9607 
2 *4465:A1 *4464:A2 15.0232 
*END

*D_NET *249 0.00167938
*CONN
*I *4609:A I *D sky130_fd_sc_hd__xnor2_1
*I *4641:X O *D sky130_fd_sc_hd__dlygate4sd3_1
*CAP
1 *4609:A 0.000378501
2 *4641:X 0.000378501
3 *4623:CLK *4609:A 0.000345503
4 *4624:D *4609:A 0.000495276
5 *210:10 *4609:A 0
6 *212:14 *4609:A 8.16036e-05
*RES
1 *4641:X *4609:A 37.5107 
*END

*D_NET *250 0.00164555
*CONN
*I *4597:B1 I *D sky130_fd_sc_hd__a21oi_1
*I *4642:X O *D sky130_fd_sc_hd__dlygate4sd3_1
*CAP
1 *4597:B1 0.000193034
2 *4642:X 0.000193034
3 *4598:B *4597:B1 0.000103181
4 *4619:CLK *4597:B1 0.000142434
5 *4619:D *4597:B1 8.35776e-05
6 *204:14 *4597:B1 0.000752344
7 *247:64 *4597:B1 0.000177948
*RES
1 *4642:X *4597:B1 35.725 
*END

*D_NET *251 0.00317603
*CONN
*I *4453:A I *D sky130_fd_sc_hd__inv_1
*I *4595:B I *D sky130_fd_sc_hd__xor2_1
*I *4643:X O *D sky130_fd_sc_hd__dlygate4sd3_1
*CAP
1 *4453:A 4.68998e-05
2 *4595:B 0.00107647
3 *4643:X 0.00112337
4 *4617:CLK *4595:B 0.000115562
5 *4617:D *4595:B 0.000703588
6 *4643:A *4453:A 0.000110147
7 *213:40 *4595:B 0
*RES
1 *4643:X *4595:B 42.1 
2 *4643:X *4453:A 19.658 
*END

*D_NET *252 0.00128812
*CONN
*I *4595:A I *D sky130_fd_sc_hd__xor2_1
*I *4644:X O *D sky130_fd_sc_hd__dlygate4sd3_1
*CAP
1 *4595:A 0.000499295
2 *4644:X 0.000499295
3 *4618:D *4595:A 0.000101627
4 *4644:A *4595:A 7.80929e-05
5 *204:14 *4595:A 0.000109809
6 *213:40 *4595:A 0
*RES
1 *4644:X *4595:A 37.85 
*END

*D_NET *253 0.00556784
*CONN
*I *4461:A2 I *D sky130_fd_sc_hd__o21ai_4
*I *4462:A1 I *D sky130_fd_sc_hd__mux2_8
*I *4651:X O *D sky130_fd_sc_hd__buf_1
*CAP
1 *4461:A2 0.000155701
2 *4462:A1 0.000126623
3 *4651:X 0.0016041
4 *253:10 0.00188642
5 *253:10 *255:12 0
6 *253:10 *256:12 5.52302e-05
7 *4452:A *253:10 0.000196198
8 *4461:A1 *4461:A2 5.52302e-05
9 *4463:A *4462:A1 7.1724e-05
10 *4463:A *253:10 0.00014983
11 *4463:B *253:10 0
12 *4464:B1 *253:10 0.000153047
13 *4465:A1 *253:10 0
14 *4465:S *253:10 0
15 *4471:A1 *253:10 0.000144623
16 *4472:B1 *253:10 5.26091e-05
17 *4474:A *4462:A1 0
18 *4478:S *253:10 0
19 *4643:A *253:10 0.00020455
20 *54:8 *253:10 0
21 *54:10 *253:10 0
22 *54:25 *253:10 0
23 *158:14 *253:10 0.000321145
24 *203:8 *253:10 0.000100831
25 *203:14 *253:10 0.000275809
26 *232:49 *4462:A1 1.41706e-05
27 *247:29 *253:10 0
*RES
1 *4651:X *253:10 49.9786 
2 *253:10 *4462:A1 7.35714 
3 *253:10 *4461:A2 16.3893 
*END

*D_NET *254 0.00186039
*CONN
*I *4602:A I *D sky130_fd_sc_hd__xor2_1
*I *4645:X O *D sky130_fd_sc_hd__dlygate4sd3_1
*CAP
1 *4602:A 0.000793742
2 *4645:X 0.000793742
3 *4621:CLK *4602:A 0.000123295
4 *4625:A *4602:A 6.70624e-05
5 *4626:A *4602:A 0
6 *4639:A *4602:A 0
7 *212:8 *4602:A 2.59355e-05
8 *212:10 *4602:A 5.66157e-05
*RES
1 *4645:X *4602:A 40.5464 
*END

*D_NET *255 0.00705495
*CONN
*I *4474:B I *D sky130_fd_sc_hd__or2_4
*I *4652:X O *D sky130_fd_sc_hd__buf_1
*CAP
1 *4474:B 9.10027e-05
2 *4652:X 3.92213e-05
3 *255:12 0.00191143
4 *255:8 0.00185965
5 *255:8 *256:12 5.52302e-05
6 *4454:A1 *255:12 0
7 *4461:B1 *255:12 0.000139793
8 *4474:A *4474:B 0.000801966
9 *4474:A *255:12 0.000120472
10 *4617:RESET_B *255:12 3.06406e-05
11 *4643:A *255:12 0
12 *54:8 *255:12 0.00031593
13 *54:10 *255:12 0.000209218
14 *54:12 *255:12 0.00014384
15 *54:25 *255:12 0.000216478
16 *164:10 *255:12 0.000320038
17 *203:8 *255:12 0
18 *232:27 *4474:B 0.000800042
19 *253:10 *255:12 0
*RES
1 *4652:X *255:8 14.3357 
2 *255:8 *255:12 47.7321 
3 *255:12 *4474:B 16.8179 
*END

*D_NET *256 0.00442667
*CONN
*I *4469:A2 I *D sky130_fd_sc_hd__o21ai_4
*I *4653:X O *D sky130_fd_sc_hd__buf_1
*CAP
1 *4469:A2 0
2 *4653:X 0.00163701
3 *256:12 0.00163701
4 *4454:A1 *256:12 0.000437724
5 *4456:A1 *256:12 0
6 *4465:A1 *256:12 0
7 *4469:B1 *256:12 0
8 *4478:A0 *256:12 0.000103295
9 *4617:D *256:12 0
10 *4637:A *256:12 4.06782e-05
11 *246:12 *256:12 0.000460489
12 *253:10 *256:12 5.52302e-05
13 *255:8 *256:12 5.52302e-05
*RES
1 *4653:X *256:12 48.7286 
2 *256:12 *4469:A2 13.8 
*END

*D_NET *257 0.00581429
*CONN
*I *4670:A I *D sky130_fd_sc_hd__clkbuf_1
*I *4511:X O *D sky130_fd_sc_hd__a32o_1
*CAP
1 *4670:A 0
2 *4511:X 0.00220808
3 *257:16 0.00220808
4 *4562:A2 *257:16 0
5 *4668:A *257:16 0.000837963
6 *216:6 *257:16 0.000276211
7 *219:14 *257:16 0.000283968
*RES
1 *4511:X *257:16 48.6214 
2 *257:16 *4670:A 9.3 
*END
