*SPEF "ieee 1481-1999"
*DESIGN "tt_ctrl"
*DATE "10:07:00 Saturday December 06, 2025"
*VENDOR "The OpenROAD Project"
*PROGRAM "OpenROAD"
*VERSION "341650e72dad0dc8571822ff8c5d9c5e365327f7"
*DESIGN_FLOW "NAME_SCOPE LOCAL" "PIN_CAP NONE"
*DIVIDER /
*DELIMITER :
*BUS_DELIMITER []
*T_UNIT 1 NS
*C_UNIT 1 PF
*R_UNIT 1 OHM
*L_UNIT 1 HENRY

*NAME_MAP
*3 ctrl_ena
*4 ctrl_sel_inc
*5 ctrl_sel_rst_n
*6 k_one
*7 k_zero
*8 pad_ui_in[0]
*9 pad_ui_in[1]
*10 pad_ui_in[2]
*11 pad_ui_in[3]
*12 pad_ui_in[4]
*13 pad_ui_in[5]
*14 pad_ui_in[6]
*15 pad_ui_in[7]
*16 pad_ui_in[8]
*17 pad_ui_in[9]
*18 pad_uio_in[0]
*19 pad_uio_in[1]
*20 pad_uio_in[2]
*21 pad_uio_in[3]
*22 pad_uio_in[4]
*23 pad_uio_in[5]
*24 pad_uio_in[6]
*25 pad_uio_in[7]
*26 uio_oe_obuf_I\[0\]\.z
*27 uio_oe_obuf_I\[1\]\.z
*28 uio_oe_obuf_I\[2\]\.z
*29 uio_oe_obuf_I\[3\]\.z
*30 uio_oe_obuf_I\[4\]\.z
*31 uio_oe_obuf_I\[5\]\.z
*32 uio_oe_obuf_I\[6\]\.z
*33 uio_oe_obuf_I\[7\]\.z
*34 uio_out_obuf_I\[0\]\.z
*35 uio_out_obuf_I\[1\]\.z
*36 uio_out_obuf_I\[2\]\.z
*37 uio_out_obuf_I\[3\]\.z
*38 uio_out_obuf_I\[4\]\.z
*39 uio_out_obuf_I\[5\]\.z
*40 uio_out_obuf_I\[6\]\.z
*41 uio_out_obuf_I\[7\]\.z
*42 uo_out_obuf_I\[0\]\.z
*43 uo_out_obuf_I\[1\]\.z
*44 uo_out_obuf_I\[2\]\.z
*45 uo_out_obuf_I\[3\]\.z
*46 uo_out_obuf_I\[4\]\.z
*47 uo_out_obuf_I\[5\]\.z
*48 uo_out_obuf_I\[6\]\.z
*49 uo_out_obuf_I\[7\]\.z
*50 genblk2\[0\]\.tie_guard_I\[0\]\.lo
*51 genblk2\[0\]\.sel_cnt_buf_I\[8\]\.z
*52 genblk2\[0\]\.pad_ui_in_buf_I\[0\]\.z
*53 genblk2\[0\]\.pad_ui_in_buf_I\[1\]\.z
*54 genblk2\[0\]\.pad_ui_in_buf_I\[2\]\.z
*55 genblk2\[0\]\.pad_ui_in_buf_I\[3\]\.z
*56 genblk2\[0\]\.pad_ui_in_buf_I\[4\]\.z
*57 genblk2\[0\]\.pad_ui_in_buf_I\[5\]\.z
*58 genblk2\[0\]\.pad_ui_in_buf_I\[6\]\.z
*59 genblk2\[0\]\.pad_ui_in_buf_I\[7\]\.z
*60 genblk2\[0\]\.pad_ui_in_buf_I\[8\]\.z
*61 genblk2\[0\]\.ctrl_ena_buf_I\.z
*62 genblk2\[0\]\.pad_ui_in_buf_I\[9\]\.z
*63 genblk2\[0\]\.pad_uio_in_buf_I\[0\]\.z
*64 genblk2\[0\]\.pad_uio_in_buf_I\[1\]\.z
*65 genblk2\[0\]\.pad_uio_in_buf_I\[2\]\.z
*66 genblk2\[0\]\.pad_uio_in_buf_I\[3\]\.z
*67 genblk2\[0\]\.pad_uio_in_buf_I\[4\]\.z
*68 genblk2\[0\]\.pad_uio_in_buf_I\[5\]\.z
*69 genblk2\[0\]\.pad_uio_in_buf_I\[6\]\.z
*70 genblk2\[0\]\.pad_uio_in_buf_I\[7\]\.z
*71 genblk2\[0\]\.tie_guard_I\[1\]\.lo
*72 genblk2\[0\]\.sel_cnt_buf_I\[0\]\.z
*73 genblk2\[0\]\.sel_cnt_buf_I\[1\]\.z
*74 genblk2\[0\]\.sel_cnt_buf_I\[2\]\.z
*75 genblk2\[0\]\.sel_cnt_buf_I\[3\]\.z
*76 genblk2\[0\]\.sel_cnt_buf_I\[4\]\.z
*77 genblk2\[0\]\.sel_cnt_buf_I\[5\]\.z
*78 genblk2\[0\]\.sel_cnt_buf_I\[6\]\.z
*79 genblk2\[0\]\.sel_cnt_buf_I\[7\]\.z
*80 spine_bot_ow[0]
*81 spine_bot_ow[10]
*82 spine_bot_ow[11]
*83 spine_bot_ow[12]
*84 spine_bot_ow[13]
*85 spine_bot_ow[14]
*86 spine_bot_ow[15]
*87 spine_bot_ow[16]
*88 spine_bot_ow[17]
*89 spine_bot_ow[18]
*90 spine_bot_ow[19]
*91 spine_bot_ow[1]
*92 spine_bot_ow[20]
*93 spine_bot_ow[21]
*94 spine_bot_ow[22]
*95 spine_bot_ow[23]
*96 spine_bot_ow[24]
*97 spine_bot_ow[25]
*98 spine_bot_ow[2]
*99 spine_bot_ow[3]
*100 spine_bot_ow[4]
*101 spine_bot_ow[5]
*102 spine_bot_ow[6]
*103 spine_bot_ow[7]
*104 spine_bot_ow[8]
*105 spine_bot_ow[9]
*106 genblk2\[1\]\.tie_guard_I\[0\]\.lo
*107 genblk2\[1\]\.sel_cnt_buf_I\[8\]\.z
*108 genblk2\[1\]\.pad_ui_in_buf_I\[0\]\.z
*109 genblk2\[1\]\.pad_ui_in_buf_I\[1\]\.z
*110 genblk2\[1\]\.pad_ui_in_buf_I\[2\]\.z
*111 genblk2\[1\]\.pad_ui_in_buf_I\[3\]\.z
*112 genblk2\[1\]\.pad_ui_in_buf_I\[4\]\.z
*113 genblk2\[1\]\.pad_ui_in_buf_I\[5\]\.z
*114 genblk2\[1\]\.pad_ui_in_buf_I\[6\]\.z
*115 genblk2\[1\]\.pad_ui_in_buf_I\[7\]\.z
*116 genblk2\[1\]\.pad_ui_in_buf_I\[8\]\.z
*117 genblk2\[1\]\.ctrl_ena_buf_I\.z
*118 genblk2\[1\]\.pad_ui_in_buf_I\[9\]\.z
*119 genblk2\[1\]\.pad_uio_in_buf_I\[0\]\.z
*120 genblk2\[1\]\.pad_uio_in_buf_I\[1\]\.z
*121 genblk2\[1\]\.pad_uio_in_buf_I\[2\]\.z
*122 genblk2\[1\]\.pad_uio_in_buf_I\[3\]\.z
*123 genblk2\[1\]\.pad_uio_in_buf_I\[4\]\.z
*124 genblk2\[1\]\.pad_uio_in_buf_I\[5\]\.z
*125 genblk2\[1\]\.pad_uio_in_buf_I\[6\]\.z
*126 genblk2\[1\]\.pad_uio_in_buf_I\[7\]\.z
*127 genblk2\[1\]\.tie_guard_I\[1\]\.lo
*128 genblk2\[1\]\.sel_cnt_buf_I\[0\]\.z
*129 genblk2\[1\]\.sel_cnt_buf_I\[1\]\.z
*130 genblk2\[1\]\.sel_cnt_buf_I\[2\]\.z
*131 genblk2\[1\]\.sel_cnt_buf_I\[3\]\.z
*132 genblk2\[1\]\.sel_cnt_buf_I\[4\]\.z
*133 genblk2\[1\]\.sel_cnt_buf_I\[5\]\.z
*134 genblk2\[1\]\.sel_cnt_buf_I\[6\]\.z
*135 genblk2\[1\]\.sel_cnt_buf_I\[7\]\.z
*136 spine_top_ow[0]
*137 spine_top_ow[10]
*138 spine_top_ow[11]
*139 spine_top_ow[12]
*140 spine_top_ow[13]
*141 spine_top_ow[14]
*142 spine_top_ow[15]
*143 spine_top_ow[16]
*144 spine_top_ow[17]
*145 spine_top_ow[18]
*146 spine_top_ow[19]
*147 spine_top_ow[1]
*148 spine_top_ow[20]
*149 spine_top_ow[21]
*150 spine_top_ow[22]
*151 spine_top_ow[23]
*152 spine_top_ow[24]
*153 spine_top_ow[25]
*154 spine_top_ow[2]
*155 spine_top_ow[3]
*156 spine_top_ow[4]
*157 spine_top_ow[5]
*158 spine_top_ow[6]
*159 spine_top_ow[7]
*160 spine_top_ow[8]
*161 spine_top_ow[9]
*162 ctrl_ena_ibuf
*163 ctrl_ibuf_I\[1\]\.z
*164 ctrl_ibuf_I\[2\]\.z
*165 genblk1\[0\]\.pull
*166 genblk1\[0\]\.tbuf_pol_spine_ow_I\.tx
*167 genblk1\[0\]\.tbuf_spine_ow_I\[0\]\.a
*168 genblk1\[0\]\.tie_I\.hi
*169 genblk1\[1\]\.pull
*170 genblk1\[1\]\.tbuf_pol_spine_ow_I\.tx
*171 genblk1\[1\]\.tbuf_spine_ow_I\[0\]\.a
*172 genblk1\[1\]\.tie_I\.hi
*173 genblk2\[0\]\.ctrl_ena_buf_I\.a
*174 genblk2\[0\]\.pad_ui_in_buf_I\[0\]\.genblk1\.l
*175 genblk2\[0\]\.pad_ui_in_buf_I\[1\]\.genblk1\.l
*176 genblk2\[0\]\.pad_ui_in_buf_I\[2\]\.genblk1\.l
*177 genblk2\[0\]\.pad_ui_in_buf_I\[3\]\.genblk1\.l
*178 genblk2\[0\]\.pad_ui_in_buf_I\[4\]\.genblk1\.l
*179 genblk2\[0\]\.pad_ui_in_buf_I\[5\]\.genblk1\.l
*180 genblk2\[0\]\.pad_ui_in_buf_I\[6\]\.genblk1\.l
*181 genblk2\[0\]\.pad_ui_in_buf_I\[7\]\.genblk1\.l
*182 genblk2\[0\]\.pad_ui_in_buf_I\[8\]\.genblk1\.l
*183 genblk2\[0\]\.pad_ui_in_buf_I\[9\]\.genblk1\.l
*184 genblk2\[0\]\.pad_uio_in_buf_I\[0\]\.genblk1\.l
*185 genblk2\[0\]\.pad_uio_in_buf_I\[1\]\.genblk1\.l
*186 genblk2\[0\]\.pad_uio_in_buf_I\[2\]\.genblk1\.l
*187 genblk2\[0\]\.pad_uio_in_buf_I\[3\]\.genblk1\.l
*188 genblk2\[0\]\.pad_uio_in_buf_I\[4\]\.genblk1\.l
*189 genblk2\[0\]\.pad_uio_in_buf_I\[5\]\.genblk1\.l
*190 genblk2\[0\]\.pad_uio_in_buf_I\[6\]\.genblk1\.l
*191 genblk2\[0\]\.pad_uio_in_buf_I\[7\]\.genblk1\.l
*192 genblk2\[0\]\.sel_cnt_buf_I\[0\]\.a
*193 genblk2\[0\]\.sel_cnt_buf_I\[1\]\.a
*194 genblk2\[0\]\.sel_cnt_buf_I\[2\]\.a
*195 genblk2\[0\]\.sel_cnt_buf_I\[3\]\.a
*196 genblk2\[0\]\.sel_cnt_buf_I\[4\]\.a
*197 genblk2\[0\]\.sel_cnt_buf_I\[5\]\.a
*198 genblk2\[0\]\.sel_cnt_buf_I\[6\]\.a
*199 genblk2\[0\]\.sel_cnt_buf_I\[7\]\.a
*200 genblk2\[0\]\.sel_cnt_buf_I\[8\]\.a
*201 genblk2\[0\]\.tie_guard_I\[0\]\.hi
*202 genblk2\[0\]\.tie_guard_I\[1\]\.hi
*203 genblk2\[1\]\.ctrl_ena_buf_I\.a
*204 genblk2\[1\]\.pad_ui_in_buf_I\[0\]\.genblk1\.l
*205 genblk2\[1\]\.pad_ui_in_buf_I\[1\]\.genblk1\.l
*206 genblk2\[1\]\.pad_ui_in_buf_I\[2\]\.genblk1\.l
*207 genblk2\[1\]\.pad_ui_in_buf_I\[3\]\.genblk1\.l
*208 genblk2\[1\]\.pad_ui_in_buf_I\[4\]\.genblk1\.l
*209 genblk2\[1\]\.pad_ui_in_buf_I\[5\]\.genblk1\.l
*210 genblk2\[1\]\.pad_ui_in_buf_I\[6\]\.genblk1\.l
*211 genblk2\[1\]\.pad_ui_in_buf_I\[7\]\.genblk1\.l
*212 genblk2\[1\]\.pad_ui_in_buf_I\[8\]\.genblk1\.l
*213 genblk2\[1\]\.pad_ui_in_buf_I\[9\]\.genblk1\.l
*214 genblk2\[1\]\.pad_uio_in_buf_I\[0\]\.genblk1\.l
*215 genblk2\[1\]\.pad_uio_in_buf_I\[1\]\.genblk1\.l
*216 genblk2\[1\]\.pad_uio_in_buf_I\[2\]\.genblk1\.l
*217 genblk2\[1\]\.pad_uio_in_buf_I\[3\]\.genblk1\.l
*218 genblk2\[1\]\.pad_uio_in_buf_I\[4\]\.genblk1\.l
*219 genblk2\[1\]\.pad_uio_in_buf_I\[5\]\.genblk1\.l
*220 genblk2\[1\]\.pad_uio_in_buf_I\[6\]\.genblk1\.l
*221 genblk2\[1\]\.pad_uio_in_buf_I\[7\]\.genblk1\.l
*222 genblk2\[1\]\.tie_guard_I\[0\]\.hi
*223 genblk2\[1\]\.tie_guard_I\[1\]\.hi
*224 sel_cnt_gen\[0\]\.cnt_bit_I\.d
*225 sel_cnt_gen\[1\]\.cnt_bit_I\.d
*226 sel_cnt_gen\[2\]\.cnt_bit_I\.d
*227 sel_cnt_gen\[3\]\.cnt_bit_I\.d
*228 sel_cnt_gen\[4\]\.cnt_bit_I\.d
*229 sel_cnt_gen\[5\]\.cnt_bit_I\.d
*230 sel_cnt_gen\[5\]\.cnt_bit_I\.q
*231 sel_cnt_gen\[6\]\.cnt_bit_I\.d
*232 sel_cnt_gen\[7\]\.cnt_bit_I\.d
*233 sel_cnt_gen\[8\]\.cnt_bit_I\.d
*234 sel_cnt_gen\[9\]\.cnt_bit_I\.d
*235 side_ena0_buf_I\.a
*236 side_ena0_buf_I\.genblk1\.l
*237 side_ena1_buf_I\.genblk1\.l
*238 side_sel
*239 uio_oe_ibuf_I\[0\]\.z
*240 uio_oe_ibuf_I\[10\]\.z
*241 uio_oe_ibuf_I\[11\]\.z
*242 uio_oe_ibuf_I\[12\]\.z
*243 uio_oe_ibuf_I\[13\]\.z
*244 uio_oe_ibuf_I\[14\]\.z
*245 uio_oe_ibuf_I\[15\]\.z
*246 uio_oe_ibuf_I\[1\]\.z
*247 uio_oe_ibuf_I\[2\]\.z
*248 uio_oe_ibuf_I\[3\]\.z
*249 uio_oe_ibuf_I\[4\]\.z
*250 uio_oe_ibuf_I\[5\]\.z
*251 uio_oe_ibuf_I\[6\]\.z
*252 uio_oe_ibuf_I\[7\]\.z
*253 uio_oe_ibuf_I\[8\]\.z
*254 uio_oe_ibuf_I\[9\]\.z
*255 uio_oe_mux_I\[0\]\.x
*256 uio_oe_mux_I\[1\]\.x
*257 uio_oe_mux_I\[2\]\.x
*258 uio_oe_mux_I\[3\]\.x
*259 uio_oe_mux_I\[4\]\.x
*260 uio_oe_mux_I\[5\]\.x
*261 uio_oe_mux_I\[6\]\.x
*262 uio_oe_mux_I\[7\]\.x
*263 uio_out_ibuf_I\[0\]\.z
*264 uio_out_ibuf_I\[10\]\.z
*265 uio_out_ibuf_I\[11\]\.z
*266 uio_out_ibuf_I\[12\]\.z
*267 uio_out_ibuf_I\[13\]\.z
*268 uio_out_ibuf_I\[14\]\.z
*269 uio_out_ibuf_I\[15\]\.z
*270 uio_out_ibuf_I\[1\]\.z
*271 uio_out_ibuf_I\[2\]\.z
*272 uio_out_ibuf_I\[3\]\.z
*273 uio_out_ibuf_I\[4\]\.z
*274 uio_out_ibuf_I\[5\]\.z
*275 uio_out_ibuf_I\[6\]\.z
*276 uio_out_ibuf_I\[7\]\.z
*277 uio_out_ibuf_I\[8\]\.z
*278 uio_out_ibuf_I\[9\]\.z
*279 uio_out_mux_I\[0\]\.x
*280 uio_out_mux_I\[1\]\.x
*281 uio_out_mux_I\[2\]\.x
*282 uio_out_mux_I\[3\]\.x
*283 uio_out_mux_I\[4\]\.x
*284 uio_out_mux_I\[5\]\.x
*285 uio_out_mux_I\[6\]\.x
*286 uio_out_mux_I\[7\]\.x
*287 uo_out_ibuf_I\[0\]\.z
*288 uo_out_ibuf_I\[10\]\.z
*289 uo_out_ibuf_I\[11\]\.z
*290 uo_out_ibuf_I\[12\]\.z
*291 uo_out_ibuf_I\[13\]\.z
*292 uo_out_ibuf_I\[14\]\.z
*293 uo_out_ibuf_I\[15\]\.z
*294 uo_out_ibuf_I\[1\]\.z
*295 uo_out_ibuf_I\[2\]\.z
*296 uo_out_ibuf_I\[3\]\.z
*297 uo_out_ibuf_I\[4\]\.z
*298 uo_out_ibuf_I\[5\]\.z
*299 uo_out_ibuf_I\[6\]\.z
*300 uo_out_ibuf_I\[7\]\.z
*301 uo_out_ibuf_I\[8\]\.z
*302 uo_out_ibuf_I\[9\]\.z
*303 uo_out_mux_I\[0\]\.x
*304 uo_out_mux_I\[1\]\.x
*305 uo_out_mux_I\[2\]\.x
*306 uo_out_mux_I\[3\]\.x
*307 uo_out_mux_I\[4\]\.x
*308 uo_out_mux_I\[5\]\.x
*309 uo_out_mux_I\[6\]\.x
*310 uo_out_mux_I\[7\]\.x
*311 FILLER_0_109
*312 FILLER_0_111
*313 FILLER_0_113
*314 FILLER_0_125
*315 FILLER_0_137
*316 FILLER_0_139
*317 FILLER_0_141
*318 FILLER_0_15
*319 FILLER_0_153
*320 FILLER_0_165
*321 FILLER_0_167
*322 FILLER_0_169
*323 FILLER_0_181
*324 FILLER_0_193
*325 FILLER_0_195
*326 FILLER_0_197
*327 FILLER_0_209
*328 FILLER_0_221
*329 FILLER_0_223
*330 FILLER_0_225
*331 FILLER_0_237
*332 FILLER_0_251
*333 FILLER_0_253
*334 FILLER_0_27
*335 FILLER_0_272
*336 FILLER_0_281
*337 FILLER_0_29
*338 FILLER_0_293
*339 FILLER_0_3
*340 FILLER_0_307
*341 FILLER_0_309
*342 FILLER_0_321
*343 FILLER_0_333
*344 FILLER_0_335
*345 FILLER_0_337
*346 FILLER_0_349
*347 FILLER_0_361
*348 FILLER_0_363
*349 FILLER_0_365
*350 FILLER_0_377
*351 FILLER_0_41
*352 FILLER_0_53
*353 FILLER_0_55
*354 FILLER_0_57
*355 FILLER_0_69
*356 FILLER_0_81
*357 FILLER_0_83
*358 FILLER_0_85
*359 FILLER_0_97
*360 FILLER_10_109
*361 FILLER_10_121
*362 FILLER_10_133
*363 FILLER_10_137
*364 FILLER_10_139
*365 FILLER_10_141
*366 FILLER_10_15
*367 FILLER_10_153
*368 FILLER_10_165
*369 FILLER_10_169
*370 FILLER_10_171
*371 FILLER_10_184
*372 FILLER_10_197
*373 FILLER_10_201
*374 FILLER_10_227
*375 FILLER_10_239
*376 FILLER_10_251
*377 FILLER_10_253
*378 FILLER_10_257
*379 FILLER_10_27
*380 FILLER_10_283
*381 FILLER_10_29
*382 FILLER_10_295
*383 FILLER_10_3
*384 FILLER_10_307
*385 FILLER_10_309
*386 FILLER_10_315
*387 FILLER_10_327
*388 FILLER_10_339
*389 FILLER_10_347
*390 FILLER_10_350
*391 FILLER_10_358
*392 FILLER_10_362
*393 FILLER_10_365
*394 FILLER_10_369
*395 FILLER_10_372
*396 FILLER_10_384
*397 FILLER_10_41
*398 FILLER_10_53
*399 FILLER_10_65
*400 FILLER_10_77
*401 FILLER_10_81
*402 FILLER_10_83
*403 FILLER_10_85
*404 FILLER_10_97
*405 FILLER_11_105
*406 FILLER_11_109
*407 FILLER_11_111
*408 FILLER_11_113
*409 FILLER_11_125
*410 FILLER_11_137
*411 FILLER_11_149
*412 FILLER_11_15
*413 FILLER_11_161
*414 FILLER_11_165
*415 FILLER_11_167
*416 FILLER_11_169
*417 FILLER_11_173
*418 FILLER_11_175
*419 FILLER_11_182
*420 FILLER_11_194
*421 FILLER_11_206
*422 FILLER_11_218
*423 FILLER_11_222
*424 FILLER_11_225
*425 FILLER_11_237
*426 FILLER_11_249
*427 FILLER_11_261
*428 FILLER_11_265
*429 FILLER_11_27
*430 FILLER_11_279
*431 FILLER_11_281
*432 FILLER_11_293
*433 FILLER_11_3
*434 FILLER_11_305
*435 FILLER_11_317
*436 FILLER_11_329
*437 FILLER_11_333
*438 FILLER_11_335
*439 FILLER_11_337
*440 FILLER_11_349
*441 FILLER_11_361
*442 FILLER_11_373
*443 FILLER_11_39
*444 FILLER_11_51
*445 FILLER_11_55
*446 FILLER_11_57
*447 FILLER_11_69
*448 FILLER_11_81
*449 FILLER_11_93
*450 FILLER_12_109
*451 FILLER_12_121
*452 FILLER_12_133
*453 FILLER_12_137
*454 FILLER_12_139
*455 FILLER_12_141
*456 FILLER_12_15
*457 FILLER_12_153
*458 FILLER_12_165
*459 FILLER_12_177
*460 FILLER_12_189
*461 FILLER_12_193
*462 FILLER_12_195
*463 FILLER_12_197
*464 FILLER_12_209
*465 FILLER_12_221
*466 FILLER_12_246
*467 FILLER_12_250
*468 FILLER_12_253
*469 FILLER_12_265
*470 FILLER_12_27
*471 FILLER_12_279
*472 FILLER_12_29
*473 FILLER_12_291
*474 FILLER_12_3
*475 FILLER_12_303
*476 FILLER_12_307
*477 FILLER_12_309
*478 FILLER_12_321
*479 FILLER_12_333
*480 FILLER_12_345
*481 FILLER_12_357
*482 FILLER_12_361
*483 FILLER_12_363
*484 FILLER_12_365
*485 FILLER_12_377
*486 FILLER_12_41
*487 FILLER_12_53
*488 FILLER_12_65
*489 FILLER_12_77
*490 FILLER_12_81
*491 FILLER_12_83
*492 FILLER_12_85
*493 FILLER_12_97
*494 FILLER_13_105
*495 FILLER_13_109
*496 FILLER_13_111
*497 FILLER_13_113
*498 FILLER_13_125
*499 FILLER_13_137
*500 FILLER_13_149
*501 FILLER_13_15
*502 FILLER_13_161
*503 FILLER_13_165
*504 FILLER_13_167
*505 FILLER_13_169
*506 FILLER_13_181
*507 FILLER_13_193
*508 FILLER_13_205
*509 FILLER_13_217
*510 FILLER_13_221
*511 FILLER_13_223
*512 FILLER_13_225
*513 FILLER_13_233
*514 FILLER_13_235
*515 FILLER_13_260
*516 FILLER_13_264
*517 FILLER_13_27
*518 FILLER_13_278
*519 FILLER_13_281
*520 FILLER_13_293
*521 FILLER_13_3
*522 FILLER_13_305
*523 FILLER_13_317
*524 FILLER_13_329
*525 FILLER_13_333
*526 FILLER_13_335
*527 FILLER_13_337
*528 FILLER_13_349
*529 FILLER_13_361
*530 FILLER_13_373
*531 FILLER_13_39
*532 FILLER_13_51
*533 FILLER_13_55
*534 FILLER_13_57
*535 FILLER_13_69
*536 FILLER_13_81
*537 FILLER_13_93
*538 FILLER_14_109
*539 FILLER_14_121
*540 FILLER_14_133
*541 FILLER_14_137
*542 FILLER_14_139
*543 FILLER_14_141
*544 FILLER_14_15
*545 FILLER_14_153
*546 FILLER_14_165
*547 FILLER_14_177
*548 FILLER_14_189
*549 FILLER_14_193
*550 FILLER_14_195
*551 FILLER_14_197
*552 FILLER_14_209
*553 FILLER_14_221
*554 FILLER_14_233
*555 FILLER_14_245
*556 FILLER_14_249
*557 FILLER_14_251
*558 FILLER_14_27
*559 FILLER_14_277
*560 FILLER_14_289
*561 FILLER_14_29
*562 FILLER_14_3
*563 FILLER_14_301
*564 FILLER_14_305
*565 FILLER_14_307
*566 FILLER_14_309
*567 FILLER_14_321
*568 FILLER_14_333
*569 FILLER_14_345
*570 FILLER_14_357
*571 FILLER_14_361
*572 FILLER_14_363
*573 FILLER_14_365
*574 FILLER_14_377
*575 FILLER_14_41
*576 FILLER_14_53
*577 FILLER_14_65
*578 FILLER_14_77
*579 FILLER_14_81
*580 FILLER_14_83
*581 FILLER_14_85
*582 FILLER_14_97
*583 FILLER_15_105
*584 FILLER_15_109
*585 FILLER_15_111
*586 FILLER_15_113
*587 FILLER_15_125
*588 FILLER_15_137
*589 FILLER_15_149
*590 FILLER_15_15
*591 FILLER_15_161
*592 FILLER_15_165
*593 FILLER_15_167
*594 FILLER_15_169
*595 FILLER_15_181
*596 FILLER_15_193
*597 FILLER_15_205
*598 FILLER_15_217
*599 FILLER_15_221
*600 FILLER_15_223
*601 FILLER_15_225
*602 FILLER_15_237
*603 FILLER_15_269
*604 FILLER_15_27
*605 FILLER_15_277
*606 FILLER_15_279
*607 FILLER_15_281
*608 FILLER_15_293
*609 FILLER_15_3
*610 FILLER_15_305
*611 FILLER_15_317
*612 FILLER_15_329
*613 FILLER_15_333
*614 FILLER_15_335
*615 FILLER_15_337
*616 FILLER_15_349
*617 FILLER_15_361
*618 FILLER_15_373
*619 FILLER_15_39
*620 FILLER_15_51
*621 FILLER_15_55
*622 FILLER_15_57
*623 FILLER_15_69
*624 FILLER_15_81
*625 FILLER_15_93
*626 FILLER_16_109
*627 FILLER_16_121
*628 FILLER_16_133
*629 FILLER_16_137
*630 FILLER_16_139
*631 FILLER_16_141
*632 FILLER_16_15
*633 FILLER_16_153
*634 FILLER_16_165
*635 FILLER_16_177
*636 FILLER_16_189
*637 FILLER_16_193
*638 FILLER_16_195
*639 FILLER_16_197
*640 FILLER_16_209
*641 FILLER_16_221
*642 FILLER_16_233
*643 FILLER_16_245
*644 FILLER_16_249
*645 FILLER_16_251
*646 FILLER_16_253
*647 FILLER_16_265
*648 FILLER_16_27
*649 FILLER_16_277
*650 FILLER_16_289
*651 FILLER_16_29
*652 FILLER_16_3
*653 FILLER_16_301
*654 FILLER_16_305
*655 FILLER_16_307
*656 FILLER_16_309
*657 FILLER_16_321
*658 FILLER_16_333
*659 FILLER_16_345
*660 FILLER_16_357
*661 FILLER_16_361
*662 FILLER_16_363
*663 FILLER_16_365
*664 FILLER_16_377
*665 FILLER_16_41
*666 FILLER_16_53
*667 FILLER_16_65
*668 FILLER_16_77
*669 FILLER_16_81
*670 FILLER_16_83
*671 FILLER_16_85
*672 FILLER_16_97
*673 FILLER_17_105
*674 FILLER_17_109
*675 FILLER_17_111
*676 FILLER_17_113
*677 FILLER_17_125
*678 FILLER_17_137
*679 FILLER_17_149
*680 FILLER_17_15
*681 FILLER_17_161
*682 FILLER_17_165
*683 FILLER_17_167
*684 FILLER_17_169
*685 FILLER_17_181
*686 FILLER_17_193
*687 FILLER_17_205
*688 FILLER_17_217
*689 FILLER_17_221
*690 FILLER_17_223
*691 FILLER_17_225
*692 FILLER_17_237
*693 FILLER_17_249
*694 FILLER_17_261
*695 FILLER_17_27
*696 FILLER_17_273
*697 FILLER_17_277
*698 FILLER_17_279
*699 FILLER_17_281
*700 FILLER_17_293
*701 FILLER_17_3
*702 FILLER_17_305
*703 FILLER_17_317
*704 FILLER_17_329
*705 FILLER_17_333
*706 FILLER_17_335
*707 FILLER_17_337
*708 FILLER_17_349
*709 FILLER_17_361
*710 FILLER_17_373
*711 FILLER_17_39
*712 FILLER_17_51
*713 FILLER_17_55
*714 FILLER_17_57
*715 FILLER_17_69
*716 FILLER_17_81
*717 FILLER_17_93
*718 FILLER_18_109
*719 FILLER_18_121
*720 FILLER_18_133
*721 FILLER_18_137
*722 FILLER_18_139
*723 FILLER_18_141
*724 FILLER_18_15
*725 FILLER_18_153
*726 FILLER_18_165
*727 FILLER_18_177
*728 FILLER_18_189
*729 FILLER_18_193
*730 FILLER_18_195
*731 FILLER_18_197
*732 FILLER_18_209
*733 FILLER_18_221
*734 FILLER_18_233
*735 FILLER_18_245
*736 FILLER_18_249
*737 FILLER_18_251
*738 FILLER_18_253
*739 FILLER_18_265
*740 FILLER_18_27
*741 FILLER_18_277
*742 FILLER_18_289
*743 FILLER_18_29
*744 FILLER_18_3
*745 FILLER_18_301
*746 FILLER_18_305
*747 FILLER_18_307
*748 FILLER_18_309
*749 FILLER_18_321
*750 FILLER_18_333
*751 FILLER_18_345
*752 FILLER_18_357
*753 FILLER_18_361
*754 FILLER_18_363
*755 FILLER_18_365
*756 FILLER_18_377
*757 FILLER_18_41
*758 FILLER_18_53
*759 FILLER_18_65
*760 FILLER_18_77
*761 FILLER_18_81
*762 FILLER_18_83
*763 FILLER_18_85
*764 FILLER_18_97
*765 FILLER_19_105
*766 FILLER_19_109
*767 FILLER_19_111
*768 FILLER_19_113
*769 FILLER_19_125
*770 FILLER_19_137
*771 FILLER_19_149
*772 FILLER_19_15
*773 FILLER_19_161
*774 FILLER_19_165
*775 FILLER_19_167
*776 FILLER_19_169
*777 FILLER_19_181
*778 FILLER_19_193
*779 FILLER_19_205
*780 FILLER_19_217
*781 FILLER_19_221
*782 FILLER_19_223
*783 FILLER_19_225
*784 FILLER_19_237
*785 FILLER_19_249
*786 FILLER_19_261
*787 FILLER_19_265
*788 FILLER_19_267
*789 FILLER_19_27
*790 FILLER_19_281
*791 FILLER_19_293
*792 FILLER_19_3
*793 FILLER_19_305
*794 FILLER_19_317
*795 FILLER_19_329
*796 FILLER_19_333
*797 FILLER_19_335
*798 FILLER_19_337
*799 FILLER_19_349
*800 FILLER_19_361
*801 FILLER_19_373
*802 FILLER_19_39
*803 FILLER_19_51
*804 FILLER_19_55
*805 FILLER_19_57
*806 FILLER_19_69
*807 FILLER_19_81
*808 FILLER_19_93
*809 FILLER_1_102
*810 FILLER_1_110
*811 FILLER_1_113
*812 FILLER_1_125
*813 FILLER_1_129
*814 FILLER_1_131
*815 FILLER_1_15
*816 FILLER_1_150
*817 FILLER_1_160
*818 FILLER_1_169
*819 FILLER_1_173
*820 FILLER_1_178
*821 FILLER_1_193
*822 FILLER_1_205
*823 FILLER_1_217
*824 FILLER_1_221
*825 FILLER_1_223
*826 FILLER_1_261
*827 FILLER_1_27
*828 FILLER_1_275
*829 FILLER_1_279
*830 FILLER_1_281
*831 FILLER_1_3
*832 FILLER_1_307
*833 FILLER_1_311
*834 FILLER_1_323
*835 FILLER_1_335
*836 FILLER_1_337
*837 FILLER_1_349
*838 FILLER_1_361
*839 FILLER_1_373
*840 FILLER_1_39
*841 FILLER_1_41
*842 FILLER_1_45
*843 FILLER_1_48
*844 FILLER_1_57
*845 FILLER_1_69
*846 FILLER_1_73
*847 FILLER_1_75
*848 FILLER_20_109
*849 FILLER_20_121
*850 FILLER_20_133
*851 FILLER_20_137
*852 FILLER_20_139
*853 FILLER_20_141
*854 FILLER_20_15
*855 FILLER_20_153
*856 FILLER_20_165
*857 FILLER_20_177
*858 FILLER_20_189
*859 FILLER_20_193
*860 FILLER_20_195
*861 FILLER_20_197
*862 FILLER_20_209
*863 FILLER_20_221
*864 FILLER_20_233
*865 FILLER_20_245
*866 FILLER_20_249
*867 FILLER_20_251
*868 FILLER_20_253
*869 FILLER_20_265
*870 FILLER_20_27
*871 FILLER_20_277
*872 FILLER_20_289
*873 FILLER_20_29
*874 FILLER_20_3
*875 FILLER_20_301
*876 FILLER_20_305
*877 FILLER_20_307
*878 FILLER_20_309
*879 FILLER_20_321
*880 FILLER_20_333
*881 FILLER_20_345
*882 FILLER_20_357
*883 FILLER_20_361
*884 FILLER_20_363
*885 FILLER_20_365
*886 FILLER_20_377
*887 FILLER_20_41
*888 FILLER_20_53
*889 FILLER_20_65
*890 FILLER_20_77
*891 FILLER_20_81
*892 FILLER_20_83
*893 FILLER_20_85
*894 FILLER_20_97
*895 FILLER_21_105
*896 FILLER_21_109
*897 FILLER_21_111
*898 FILLER_21_113
*899 FILLER_21_125
*900 FILLER_21_137
*901 FILLER_21_149
*902 FILLER_21_15
*903 FILLER_21_161
*904 FILLER_21_165
*905 FILLER_21_167
*906 FILLER_21_169
*907 FILLER_21_181
*908 FILLER_21_193
*909 FILLER_21_205
*910 FILLER_21_217
*911 FILLER_21_221
*912 FILLER_21_223
*913 FILLER_21_225
*914 FILLER_21_237
*915 FILLER_21_249
*916 FILLER_21_261
*917 FILLER_21_27
*918 FILLER_21_273
*919 FILLER_21_277
*920 FILLER_21_279
*921 FILLER_21_281
*922 FILLER_21_293
*923 FILLER_21_3
*924 FILLER_21_305
*925 FILLER_21_317
*926 FILLER_21_329
*927 FILLER_21_333
*928 FILLER_21_335
*929 FILLER_21_337
*930 FILLER_21_349
*931 FILLER_21_361
*932 FILLER_21_373
*933 FILLER_21_39
*934 FILLER_21_51
*935 FILLER_21_55
*936 FILLER_21_57
*937 FILLER_21_69
*938 FILLER_21_81
*939 FILLER_21_93
*940 FILLER_22_111
*941 FILLER_22_123
*942 FILLER_22_135
*943 FILLER_22_139
*944 FILLER_22_141
*945 FILLER_22_15
*946 FILLER_22_153
*947 FILLER_22_165
*948 FILLER_22_177
*949 FILLER_22_189
*950 FILLER_22_193
*951 FILLER_22_195
*952 FILLER_22_197
*953 FILLER_22_209
*954 FILLER_22_221
*955 FILLER_22_233
*956 FILLER_22_245
*957 FILLER_22_249
*958 FILLER_22_251
*959 FILLER_22_253
*960 FILLER_22_265
*961 FILLER_22_27
*962 FILLER_22_277
*963 FILLER_22_289
*964 FILLER_22_29
*965 FILLER_22_3
*966 FILLER_22_301
*967 FILLER_22_305
*968 FILLER_22_307
*969 FILLER_22_309
*970 FILLER_22_321
*971 FILLER_22_333
*972 FILLER_22_345
*973 FILLER_22_357
*974 FILLER_22_361
*975 FILLER_22_363
*976 FILLER_22_365
*977 FILLER_22_377
*978 FILLER_22_41
*979 FILLER_22_53
*980 FILLER_22_65
*981 FILLER_22_77
*982 FILLER_22_81
*983 FILLER_22_83
*984 FILLER_22_85
*985 FILLER_22_97
*986 FILLER_23_105
*987 FILLER_23_109
*988 FILLER_23_111
*989 FILLER_23_113
*990 FILLER_23_125
*991 FILLER_23_137
*992 FILLER_23_149
*993 FILLER_23_15
*994 FILLER_23_161
*995 FILLER_23_165
*996 FILLER_23_167
*997 FILLER_23_169
*998 FILLER_23_181
*999 FILLER_23_193
*1000 FILLER_23_205
*1001 FILLER_23_217
*1002 FILLER_23_221
*1003 FILLER_23_223
*1004 FILLER_23_225
*1005 FILLER_23_237
*1006 FILLER_23_249
*1007 FILLER_23_261
*1008 FILLER_23_265
*1009 FILLER_23_27
*1010 FILLER_23_278
*1011 FILLER_23_281
*1012 FILLER_23_293
*1013 FILLER_23_3
*1014 FILLER_23_305
*1015 FILLER_23_317
*1016 FILLER_23_329
*1017 FILLER_23_333
*1018 FILLER_23_335
*1019 FILLER_23_337
*1020 FILLER_23_349
*1021 FILLER_23_361
*1022 FILLER_23_373
*1023 FILLER_23_39
*1024 FILLER_23_51
*1025 FILLER_23_55
*1026 FILLER_23_57
*1027 FILLER_23_69
*1028 FILLER_23_81
*1029 FILLER_23_93
*1030 FILLER_24_101
*1031 FILLER_24_103
*1032 FILLER_24_106
*1033 FILLER_24_110
*1034 FILLER_24_118
*1035 FILLER_24_130
*1036 FILLER_24_134
*1037 FILLER_24_138
*1038 FILLER_24_141
*1039 FILLER_24_15
*1040 FILLER_24_153
*1041 FILLER_24_165
*1042 FILLER_24_177
*1043 FILLER_24_189
*1044 FILLER_24_193
*1045 FILLER_24_195
*1046 FILLER_24_197
*1047 FILLER_24_209
*1048 FILLER_24_221
*1049 FILLER_24_233
*1050 FILLER_24_245
*1051 FILLER_24_249
*1052 FILLER_24_251
*1053 FILLER_24_253
*1054 FILLER_24_265
*1055 FILLER_24_27
*1056 FILLER_24_277
*1057 FILLER_24_289
*1058 FILLER_24_29
*1059 FILLER_24_3
*1060 FILLER_24_301
*1061 FILLER_24_305
*1062 FILLER_24_307
*1063 FILLER_24_309
*1064 FILLER_24_321
*1065 FILLER_24_333
*1066 FILLER_24_345
*1067 FILLER_24_357
*1068 FILLER_24_361
*1069 FILLER_24_363
*1070 FILLER_24_365
*1071 FILLER_24_377
*1072 FILLER_24_41
*1073 FILLER_24_53
*1074 FILLER_24_65
*1075 FILLER_24_77
*1076 FILLER_24_81
*1077 FILLER_24_83
*1078 FILLER_24_85
*1079 FILLER_24_97
*1080 FILLER_25_101
*1081 FILLER_25_109
*1082 FILLER_25_111
*1083 FILLER_25_113
*1084 FILLER_25_125
*1085 FILLER_25_129
*1086 FILLER_25_132
*1087 FILLER_25_140
*1088 FILLER_25_146
*1089 FILLER_25_15
*1090 FILLER_25_158
*1091 FILLER_25_166
*1092 FILLER_25_169
*1093 FILLER_25_181
*1094 FILLER_25_193
*1095 FILLER_25_205
*1096 FILLER_25_217
*1097 FILLER_25_221
*1098 FILLER_25_223
*1099 FILLER_25_225
*1100 FILLER_25_237
*1101 FILLER_25_249
*1102 FILLER_25_261
*1103 FILLER_25_27
*1104 FILLER_25_273
*1105 FILLER_25_277
*1106 FILLER_25_279
*1107 FILLER_25_281
*1108 FILLER_25_293
*1109 FILLER_25_3
*1110 FILLER_25_305
*1111 FILLER_25_317
*1112 FILLER_25_329
*1113 FILLER_25_333
*1114 FILLER_25_335
*1115 FILLER_25_337
*1116 FILLER_25_349
*1117 FILLER_25_361
*1118 FILLER_25_373
*1119 FILLER_25_39
*1120 FILLER_25_51
*1121 FILLER_25_55
*1122 FILLER_25_57
*1123 FILLER_25_69
*1124 FILLER_25_83
*1125 FILLER_25_89
*1126 FILLER_26_100
*1127 FILLER_26_104
*1128 FILLER_26_106
*1129 FILLER_26_111
*1130 FILLER_26_116
*1131 FILLER_26_124
*1132 FILLER_26_127
*1133 FILLER_26_139
*1134 FILLER_26_144
*1135 FILLER_26_146
*1136 FILLER_26_15
*1137 FILLER_26_151
*1138 FILLER_26_155
*1139 FILLER_26_159
*1140 FILLER_26_169
*1141 FILLER_26_181
*1142 FILLER_26_194
*1143 FILLER_26_197
*1144 FILLER_26_209
*1145 FILLER_26_221
*1146 FILLER_26_233
*1147 FILLER_26_245
*1148 FILLER_26_249
*1149 FILLER_26_251
*1150 FILLER_26_253
*1151 FILLER_26_265
*1152 FILLER_26_27
*1153 FILLER_26_277
*1154 FILLER_26_289
*1155 FILLER_26_29
*1156 FILLER_26_3
*1157 FILLER_26_301
*1158 FILLER_26_305
*1159 FILLER_26_307
*1160 FILLER_26_309
*1161 FILLER_26_321
*1162 FILLER_26_325
*1163 FILLER_26_327
*1164 FILLER_26_330
*1165 FILLER_26_334
*1166 FILLER_26_346
*1167 FILLER_26_358
*1168 FILLER_26_362
*1169 FILLER_26_365
*1170 FILLER_26_377
*1171 FILLER_26_41
*1172 FILLER_26_53
*1173 FILLER_26_65
*1174 FILLER_26_77
*1175 FILLER_26_81
*1176 FILLER_26_83
*1177 FILLER_26_85
*1178 FILLER_26_97
*1179 FILLER_27_101
*1180 FILLER_27_106
*1181 FILLER_27_110
*1182 FILLER_27_113
*1183 FILLER_27_125
*1184 FILLER_27_133
*1185 FILLER_27_137
*1186 FILLER_27_147
*1187 FILLER_27_15
*1188 FILLER_27_156
*1189 FILLER_27_158
*1190 FILLER_27_164
*1191 FILLER_27_172
*1192 FILLER_27_184
*1193 FILLER_27_196
*1194 FILLER_27_208
*1195 FILLER_27_220
*1196 FILLER_27_225
*1197 FILLER_27_237
*1198 FILLER_27_249
*1199 FILLER_27_261
*1200 FILLER_27_27
*1201 FILLER_27_273
*1202 FILLER_27_277
*1203 FILLER_27_279
*1204 FILLER_27_281
*1205 FILLER_27_293
*1206 FILLER_27_3
*1207 FILLER_27_305
*1208 FILLER_27_317
*1209 FILLER_27_329
*1210 FILLER_27_333
*1211 FILLER_27_335
*1212 FILLER_27_339
*1213 FILLER_27_351
*1214 FILLER_27_354
*1215 FILLER_27_366
*1216 FILLER_27_378
*1217 FILLER_27_382
*1218 FILLER_27_384
*1219 FILLER_27_39
*1220 FILLER_27_51
*1221 FILLER_27_55
*1222 FILLER_27_57
*1223 FILLER_27_69
*1224 FILLER_27_73
*1225 FILLER_27_80
*1226 FILLER_27_86
*1227 FILLER_27_94
*1228 FILLER_27_96
*1229 FILLER_27_99
*1230 FILLER_28_101
*1231 FILLER_28_115
*1232 FILLER_28_127
*1233 FILLER_28_131
*1234 FILLER_28_139
*1235 FILLER_28_141
*1236 FILLER_28_145
*1237 FILLER_28_147
*1238 FILLER_28_15
*1239 FILLER_28_151
*1240 FILLER_28_158
*1241 FILLER_28_170
*1242 FILLER_28_182
*1243 FILLER_28_194
*1244 FILLER_28_197
*1245 FILLER_28_209
*1246 FILLER_28_221
*1247 FILLER_28_233
*1248 FILLER_28_245
*1249 FILLER_28_249
*1250 FILLER_28_251
*1251 FILLER_28_253
*1252 FILLER_28_260
*1253 FILLER_28_268
*1254 FILLER_28_27
*1255 FILLER_28_280
*1256 FILLER_28_29
*1257 FILLER_28_292
*1258 FILLER_28_3
*1259 FILLER_28_304
*1260 FILLER_28_309
*1261 FILLER_28_321
*1262 FILLER_28_333
*1263 FILLER_28_337
*1264 FILLER_28_339
*1265 FILLER_28_342
*1266 FILLER_28_354
*1267 FILLER_28_362
*1268 FILLER_28_365
*1269 FILLER_28_377
*1270 FILLER_28_41
*1271 FILLER_28_53
*1272 FILLER_28_65
*1273 FILLER_28_67
*1274 FILLER_28_76
*1275 FILLER_28_85
*1276 FILLER_28_97
*1277 FILLER_29_102
*1278 FILLER_29_104
*1279 FILLER_29_109
*1280 FILLER_29_111
*1281 FILLER_29_113
*1282 FILLER_29_119
*1283 FILLER_29_131
*1284 FILLER_29_133
*1285 FILLER_29_143
*1286 FILLER_29_15
*1287 FILLER_29_155
*1288 FILLER_29_171
*1289 FILLER_29_183
*1290 FILLER_29_195
*1291 FILLER_29_207
*1292 FILLER_29_219
*1293 FILLER_29_223
*1294 FILLER_29_231
*1295 FILLER_29_241
*1296 FILLER_29_245
*1297 FILLER_29_253
*1298 FILLER_29_265
*1299 FILLER_29_27
*1300 FILLER_29_277
*1301 FILLER_29_279
*1302 FILLER_29_293
*1303 FILLER_29_3
*1304 FILLER_29_305
*1305 FILLER_29_317
*1306 FILLER_29_329
*1307 FILLER_29_333
*1308 FILLER_29_335
*1309 FILLER_29_337
*1310 FILLER_29_341
*1311 FILLER_29_343
*1312 FILLER_29_346
*1313 FILLER_29_350
*1314 FILLER_29_362
*1315 FILLER_29_374
*1316 FILLER_29_382
*1317 FILLER_29_384
*1318 FILLER_29_39
*1319 FILLER_29_51
*1320 FILLER_29_55
*1321 FILLER_29_57
*1322 FILLER_29_72
*1323 FILLER_29_85
*1324 FILLER_29_89
*1325 FILLER_29_94
*1326 FILLER_2_141
*1327 FILLER_2_15
*1328 FILLER_2_167
*1329 FILLER_2_179
*1330 FILLER_2_183
*1331 FILLER_2_209
*1332 FILLER_2_221
*1333 FILLER_2_253
*1334 FILLER_2_255
*1335 FILLER_2_27
*1336 FILLER_2_286
*1337 FILLER_2_288
*1338 FILLER_2_3
*1339 FILLER_2_301
*1340 FILLER_2_305
*1341 FILLER_2_307
*1342 FILLER_2_309
*1343 FILLER_2_321
*1344 FILLER_2_333
*1345 FILLER_2_345
*1346 FILLER_2_357
*1347 FILLER_2_361
*1348 FILLER_2_363
*1349 FILLER_2_365
*1350 FILLER_2_377
*1351 FILLER_2_43
*1352 FILLER_2_55
*1353 FILLER_2_67
*1354 FILLER_2_75
*1355 FILLER_2_88
*1356 FILLER_30_109
*1357 FILLER_30_121
*1358 FILLER_30_133
*1359 FILLER_30_137
*1360 FILLER_30_139
*1361 FILLER_30_141
*1362 FILLER_30_157
*1363 FILLER_30_161
*1364 FILLER_30_165
*1365 FILLER_30_169
*1366 FILLER_30_171
*1367 FILLER_30_175
*1368 FILLER_30_179
*1369 FILLER_30_181
*1370 FILLER_30_197
*1371 FILLER_30_209
*1372 FILLER_30_221
*1373 FILLER_30_229
*1374 FILLER_30_236
*1375 FILLER_30_24
*1376 FILLER_30_265
*1377 FILLER_30_277
*1378 FILLER_30_289
*1379 FILLER_30_3
*1380 FILLER_30_301
*1381 FILLER_30_305
*1382 FILLER_30_307
*1383 FILLER_30_309
*1384 FILLER_30_321
*1385 FILLER_30_333
*1386 FILLER_30_345
*1387 FILLER_30_357
*1388 FILLER_30_361
*1389 FILLER_30_363
*1390 FILLER_30_365
*1391 FILLER_30_377
*1392 FILLER_30_43
*1393 FILLER_30_55
*1394 FILLER_30_7
*1395 FILLER_30_77
*1396 FILLER_30_79
*1397 FILLER_30_85
*1398 FILLER_30_9
*1399 FILLER_30_97
*1400 FILLER_31_121
*1401 FILLER_31_129
*1402 FILLER_31_139
*1403 FILLER_31_152
*1404 FILLER_31_177
*1405 FILLER_31_185
*1406 FILLER_31_189
*1407 FILLER_31_201
*1408 FILLER_31_213
*1409 FILLER_31_221
*1410 FILLER_31_223
*1411 FILLER_31_225
*1412 FILLER_31_238
*1413 FILLER_31_24
*1414 FILLER_31_270
*1415 FILLER_31_278
*1416 FILLER_31_281
*1417 FILLER_31_293
*1418 FILLER_31_3
*1419 FILLER_31_305
*1420 FILLER_31_317
*1421 FILLER_31_329
*1422 FILLER_31_333
*1423 FILLER_31_335
*1424 FILLER_31_337
*1425 FILLER_31_349
*1426 FILLER_31_36
*1427 FILLER_31_361
*1428 FILLER_31_373
*1429 FILLER_31_48
*1430 FILLER_31_57
*1431 FILLER_31_61
*1432 FILLER_31_63
*1433 FILLER_31_7
*1434 FILLER_31_73
*1435 FILLER_31_75
*1436 FILLER_31_89
*1437 FILLER_31_9
*1438 FILLER_31_97
*1439 FILLER_32_103
*1440 FILLER_32_105
*1441 FILLER_32_11
*1442 FILLER_32_115
*1443 FILLER_32_127
*1444 FILLER_32_13
*1445 FILLER_32_139
*1446 FILLER_32_141
*1447 FILLER_32_176
*1448 FILLER_32_188
*1449 FILLER_32_197
*1450 FILLER_32_209
*1451 FILLER_32_221
*1452 FILLER_32_229
*1453 FILLER_32_242
*1454 FILLER_32_250
*1455 FILLER_32_253
*1456 FILLER_32_265
*1457 FILLER_32_277
*1458 FILLER_32_289
*1459 FILLER_32_3
*1460 FILLER_32_302
*1461 FILLER_32_306
*1462 FILLER_32_323
*1463 FILLER_32_335
*1464 FILLER_32_347
*1465 FILLER_32_359
*1466 FILLER_32_363
*1467 FILLER_32_365
*1468 FILLER_32_377
*1469 FILLER_32_43
*1470 FILLER_32_55
*1471 FILLER_32_67
*1472 FILLER_32_81
*1473 FILLER_32_83
*1474 FILLER_32_85
*1475 FILLER_33_101
*1476 FILLER_33_109
*1477 FILLER_33_111
*1478 FILLER_33_113
*1479 FILLER_33_125
*1480 FILLER_33_137
*1481 FILLER_33_149
*1482 FILLER_33_15
*1483 FILLER_33_153
*1484 FILLER_33_156
*1485 FILLER_33_160
*1486 FILLER_33_164
*1487 FILLER_33_171
*1488 FILLER_33_183
*1489 FILLER_33_195
*1490 FILLER_33_207
*1491 FILLER_33_219
*1492 FILLER_33_223
*1493 FILLER_33_225
*1494 FILLER_33_233
*1495 FILLER_33_235
*1496 FILLER_33_248
*1497 FILLER_33_260
*1498 FILLER_33_264
*1499 FILLER_33_277
*1500 FILLER_33_279
*1501 FILLER_33_281
*1502 FILLER_33_3
*1503 FILLER_33_30
*1504 FILLER_33_307
*1505 FILLER_33_319
*1506 FILLER_33_331
*1507 FILLER_33_335
*1508 FILLER_33_337
*1509 FILLER_33_349
*1510 FILLER_33_361
*1511 FILLER_33_373
*1512 FILLER_33_42
*1513 FILLER_33_54
*1514 FILLER_33_57
*1515 FILLER_33_69
*1516 FILLER_33_73
*1517 FILLER_33_77
*1518 FILLER_33_89
*1519 FILLER_34_109
*1520 FILLER_34_121
*1521 FILLER_34_141
*1522 FILLER_34_15
*1523 FILLER_34_153
*1524 FILLER_34_181
*1525 FILLER_34_193
*1526 FILLER_34_195
*1527 FILLER_34_197
*1528 FILLER_34_209
*1529 FILLER_34_221
*1530 FILLER_34_233
*1531 FILLER_34_245
*1532 FILLER_34_249
*1533 FILLER_34_251
*1534 FILLER_34_253
*1535 FILLER_34_265
*1536 FILLER_34_27
*1537 FILLER_34_278
*1538 FILLER_34_286
*1539 FILLER_34_29
*1540 FILLER_34_299
*1541 FILLER_34_3
*1542 FILLER_34_307
*1543 FILLER_34_309
*1544 FILLER_34_317
*1545 FILLER_34_333
*1546 FILLER_34_345
*1547 FILLER_34_357
*1548 FILLER_34_361
*1549 FILLER_34_363
*1550 FILLER_34_365
*1551 FILLER_34_377
*1552 FILLER_34_41
*1553 FILLER_34_53
*1554 FILLER_34_65
*1555 FILLER_34_69
*1556 FILLER_34_82
*1557 FILLER_34_85
*1558 FILLER_34_97
*1559 FILLER_35_122
*1560 FILLER_35_126
*1561 FILLER_35_131
*1562 FILLER_35_15
*1563 FILLER_35_151
*1564 FILLER_35_169
*1565 FILLER_35_181
*1566 FILLER_35_185
*1567 FILLER_35_192
*1568 FILLER_35_204
*1569 FILLER_35_222
*1570 FILLER_35_225
*1571 FILLER_35_237
*1572 FILLER_35_249
*1573 FILLER_35_261
*1574 FILLER_35_27
*1575 FILLER_35_273
*1576 FILLER_35_277
*1577 FILLER_35_279
*1578 FILLER_35_281
*1579 FILLER_35_293
*1580 FILLER_35_3
*1581 FILLER_35_305
*1582 FILLER_35_317
*1583 FILLER_35_329
*1584 FILLER_35_333
*1585 FILLER_35_335
*1586 FILLER_35_337
*1587 FILLER_35_349
*1588 FILLER_35_361
*1589 FILLER_35_373
*1590 FILLER_35_39
*1591 FILLER_35_51
*1592 FILLER_35_55
*1593 FILLER_35_57
*1594 FILLER_35_76
*1595 FILLER_35_87
*1596 FILLER_35_99
*1597 FILLER_36_109
*1598 FILLER_36_11
*1599 FILLER_36_115
*1600 FILLER_36_13
*1601 FILLER_36_132
*1602 FILLER_36_141
*1603 FILLER_36_151
*1604 FILLER_36_170
*1605 FILLER_36_182
*1606 FILLER_36_197
*1607 FILLER_36_209
*1608 FILLER_36_234
*1609 FILLER_36_241
*1610 FILLER_36_248
*1611 FILLER_36_259
*1612 FILLER_36_267
*1613 FILLER_36_269
*1614 FILLER_36_276
*1615 FILLER_36_280
*1616 FILLER_36_287
*1617 FILLER_36_29
*1618 FILLER_36_299
*1619 FILLER_36_3
*1620 FILLER_36_307
*1621 FILLER_36_309
*1622 FILLER_36_321
*1623 FILLER_36_333
*1624 FILLER_36_345
*1625 FILLER_36_349
*1626 FILLER_36_365
*1627 FILLER_36_377
*1628 FILLER_36_47
*1629 FILLER_36_59
*1630 FILLER_36_61
*1631 FILLER_36_75
*1632 FILLER_36_96
*1633 FILLER_36_98
*1634 FILLER_37_105
*1635 FILLER_37_113
*1636 FILLER_37_127
*1637 FILLER_37_129
*1638 FILLER_37_140
*1639 FILLER_37_164
*1640 FILLER_37_169
*1641 FILLER_37_172
*1642 FILLER_37_176
*1643 FILLER_37_179
*1644 FILLER_37_183
*1645 FILLER_37_209
*1646 FILLER_37_222
*1647 FILLER_37_24
*1648 FILLER_37_261
*1649 FILLER_37_265
*1650 FILLER_37_267
*1651 FILLER_37_293
*1652 FILLER_37_3
*1653 FILLER_37_329
*1654 FILLER_37_333
*1655 FILLER_37_335
*1656 FILLER_37_365
*1657 FILLER_37_377
*1658 FILLER_37_39
*1659 FILLER_37_41
*1660 FILLER_37_57
*1661 FILLER_37_69
*1662 FILLER_37_7
*1663 FILLER_37_84
*1664 FILLER_37_88
*1665 FILLER_37_9
*1666 FILLER_37_92
*1667 FILLER_38_111
*1668 FILLER_38_113
*1669 FILLER_38_125
*1670 FILLER_38_139
*1671 FILLER_38_141
*1672 FILLER_38_145
*1673 FILLER_38_147
*1674 FILLER_38_15
*1675 FILLER_38_150
*1676 FILLER_38_162
*1677 FILLER_38_166
*1678 FILLER_38_169
*1679 FILLER_38_181
*1680 FILLER_38_189
*1681 FILLER_38_194
*1682 FILLER_38_209
*1683 FILLER_38_221
*1684 FILLER_38_223
*1685 FILLER_38_225
*1686 FILLER_38_237
*1687 FILLER_38_249
*1688 FILLER_38_251
*1689 FILLER_38_265
*1690 FILLER_38_27
*1691 FILLER_38_277
*1692 FILLER_38_279
*1693 FILLER_38_281
*1694 FILLER_38_289
*1695 FILLER_38_29
*1696 FILLER_38_3
*1697 FILLER_38_303
*1698 FILLER_38_309
*1699 FILLER_38_321
*1700 FILLER_38_351
*1701 FILLER_38_363
*1702 FILLER_38_365
*1703 FILLER_38_377
*1704 FILLER_38_51
*1705 FILLER_38_55
*1706 FILLER_38_57
*1707 FILLER_38_69
*1708 FILLER_38_73
*1709 FILLER_38_79
*1710 FILLER_38_83
*1711 FILLER_38_85
*1712 FILLER_38_99
*1713 FILLER_3_106
*1714 FILLER_3_110
*1715 FILLER_3_113
*1716 FILLER_3_121
*1717 FILLER_3_123
*1718 FILLER_3_132
*1719 FILLER_3_136
*1720 FILLER_3_15
*1721 FILLER_3_153
*1722 FILLER_3_157
*1723 FILLER_3_166
*1724 FILLER_3_169
*1725 FILLER_3_181
*1726 FILLER_3_185
*1727 FILLER_3_206
*1728 FILLER_3_218
*1729 FILLER_3_222
*1730 FILLER_3_225
*1731 FILLER_3_227
*1732 FILLER_3_240
*1733 FILLER_3_252
*1734 FILLER_3_264
*1735 FILLER_3_27
*1736 FILLER_3_276
*1737 FILLER_3_281
*1738 FILLER_3_283
*1739 FILLER_3_290
*1740 FILLER_3_3
*1741 FILLER_3_302
*1742 FILLER_3_314
*1743 FILLER_3_326
*1744 FILLER_3_334
*1745 FILLER_3_337
*1746 FILLER_3_349
*1747 FILLER_3_35
*1748 FILLER_3_361
*1749 FILLER_3_37
*1750 FILLER_3_373
*1751 FILLER_3_40
*1752 FILLER_3_52
*1753 FILLER_3_57
*1754 FILLER_3_69
*1755 FILLER_3_73
*1756 FILLER_4_109
*1757 FILLER_4_121
*1758 FILLER_4_136
*1759 FILLER_4_141
*1760 FILLER_4_15
*1761 FILLER_4_153
*1762 FILLER_4_161
*1763 FILLER_4_163
*1764 FILLER_4_181
*1765 FILLER_4_194
*1766 FILLER_4_197
*1767 FILLER_4_209
*1768 FILLER_4_221
*1769 FILLER_4_233
*1770 FILLER_4_245
*1771 FILLER_4_249
*1772 FILLER_4_251
*1773 FILLER_4_253
*1774 FILLER_4_265
*1775 FILLER_4_27
*1776 FILLER_4_29
*1777 FILLER_4_3
*1778 FILLER_4_305
*1779 FILLER_4_307
*1780 FILLER_4_309
*1781 FILLER_4_321
*1782 FILLER_4_333
*1783 FILLER_4_345
*1784 FILLER_4_357
*1785 FILLER_4_361
*1786 FILLER_4_363
*1787 FILLER_4_365
*1788 FILLER_4_377
*1789 FILLER_4_41
*1790 FILLER_4_53
*1791 FILLER_4_65
*1792 FILLER_4_77
*1793 FILLER_4_81
*1794 FILLER_4_83
*1795 FILLER_4_85
*1796 FILLER_4_97
*1797 FILLER_5_110
*1798 FILLER_5_113
*1799 FILLER_5_121
*1800 FILLER_5_123
*1801 FILLER_5_133
*1802 FILLER_5_145
*1803 FILLER_5_15
*1804 FILLER_5_157
*1805 FILLER_5_165
*1806 FILLER_5_167
*1807 FILLER_5_169
*1808 FILLER_5_181
*1809 FILLER_5_189
*1810 FILLER_5_201
*1811 FILLER_5_213
*1812 FILLER_5_221
*1813 FILLER_5_223
*1814 FILLER_5_225
*1815 FILLER_5_229
*1816 FILLER_5_242
*1817 FILLER_5_254
*1818 FILLER_5_258
*1819 FILLER_5_27
*1820 FILLER_5_272
*1821 FILLER_5_281
*1822 FILLER_5_293
*1823 FILLER_5_3
*1824 FILLER_5_305
*1825 FILLER_5_317
*1826 FILLER_5_329
*1827 FILLER_5_333
*1828 FILLER_5_335
*1829 FILLER_5_337
*1830 FILLER_5_349
*1831 FILLER_5_361
*1832 FILLER_5_365
*1833 FILLER_5_367
*1834 FILLER_5_370
*1835 FILLER_5_382
*1836 FILLER_5_384
*1837 FILLER_5_39
*1838 FILLER_5_47
*1839 FILLER_5_50
*1840 FILLER_5_54
*1841 FILLER_5_57
*1842 FILLER_5_59
*1843 FILLER_5_62
*1844 FILLER_5_70
*1845 FILLER_5_74
*1846 FILLER_5_86
*1847 FILLER_5_98
*1848 FILLER_6_109
*1849 FILLER_6_121
*1850 FILLER_6_133
*1851 FILLER_6_137
*1852 FILLER_6_139
*1853 FILLER_6_141
*1854 FILLER_6_15
*1855 FILLER_6_153
*1856 FILLER_6_169
*1857 FILLER_6_181
*1858 FILLER_6_193
*1859 FILLER_6_195
*1860 FILLER_6_197
*1861 FILLER_6_201
*1862 FILLER_6_239
*1863 FILLER_6_251
*1864 FILLER_6_253
*1865 FILLER_6_265
*1866 FILLER_6_267
*1867 FILLER_6_27
*1868 FILLER_6_29
*1869 FILLER_6_292
*1870 FILLER_6_3
*1871 FILLER_6_304
*1872 FILLER_6_309
*1873 FILLER_6_321
*1874 FILLER_6_333
*1875 FILLER_6_345
*1876 FILLER_6_357
*1877 FILLER_6_361
*1878 FILLER_6_363
*1879 FILLER_6_365
*1880 FILLER_6_377
*1881 FILLER_6_41
*1882 FILLER_6_53
*1883 FILLER_6_65
*1884 FILLER_6_77
*1885 FILLER_6_81
*1886 FILLER_6_83
*1887 FILLER_6_85
*1888 FILLER_6_97
*1889 FILLER_7_105
*1890 FILLER_7_109
*1891 FILLER_7_111
*1892 FILLER_7_113
*1893 FILLER_7_125
*1894 FILLER_7_136
*1895 FILLER_7_148
*1896 FILLER_7_15
*1897 FILLER_7_160
*1898 FILLER_7_169
*1899 FILLER_7_181
*1900 FILLER_7_193
*1901 FILLER_7_205
*1902 FILLER_7_207
*1903 FILLER_7_220
*1904 FILLER_7_237
*1905 FILLER_7_249
*1906 FILLER_7_261
*1907 FILLER_7_263
*1908 FILLER_7_27
*1909 FILLER_7_270
*1910 FILLER_7_278
*1911 FILLER_7_281
*1912 FILLER_7_283
*1913 FILLER_7_296
*1914 FILLER_7_3
*1915 FILLER_7_308
*1916 FILLER_7_320
*1917 FILLER_7_332
*1918 FILLER_7_337
*1919 FILLER_7_349
*1920 FILLER_7_361
*1921 FILLER_7_373
*1922 FILLER_7_39
*1923 FILLER_7_51
*1924 FILLER_7_55
*1925 FILLER_7_57
*1926 FILLER_7_69
*1927 FILLER_7_81
*1928 FILLER_7_93
*1929 FILLER_8_109
*1930 FILLER_8_121
*1931 FILLER_8_133
*1932 FILLER_8_137
*1933 FILLER_8_141
*1934 FILLER_8_15
*1935 FILLER_8_153
*1936 FILLER_8_165
*1937 FILLER_8_189
*1938 FILLER_8_193
*1939 FILLER_8_195
*1940 FILLER_8_197
*1941 FILLER_8_223
*1942 FILLER_8_225
*1943 FILLER_8_244
*1944 FILLER_8_253
*1945 FILLER_8_261
*1946 FILLER_8_263
*1947 FILLER_8_27
*1948 FILLER_8_288
*1949 FILLER_8_29
*1950 FILLER_8_3
*1951 FILLER_8_300
*1952 FILLER_8_309
*1953 FILLER_8_321
*1954 FILLER_8_333
*1955 FILLER_8_345
*1956 FILLER_8_357
*1957 FILLER_8_361
*1958 FILLER_8_363
*1959 FILLER_8_365
*1960 FILLER_8_377
*1961 FILLER_8_41
*1962 FILLER_8_53
*1963 FILLER_8_65
*1964 FILLER_8_77
*1965 FILLER_8_81
*1966 FILLER_8_83
*1967 FILLER_8_85
*1968 FILLER_8_97
*1969 FILLER_9_105
*1970 FILLER_9_109
*1971 FILLER_9_111
*1972 FILLER_9_113
*1973 FILLER_9_125
*1974 FILLER_9_137
*1975 FILLER_9_149
*1976 FILLER_9_15
*1977 FILLER_9_161
*1978 FILLER_9_165
*1979 FILLER_9_167
*1980 FILLER_9_169
*1981 FILLER_9_173
*1982 FILLER_9_177
*1983 FILLER_9_184
*1984 FILLER_9_196
*1985 FILLER_9_208
*1986 FILLER_9_220
*1987 FILLER_9_225
*1988 FILLER_9_237
*1989 FILLER_9_249
*1990 FILLER_9_261
*1991 FILLER_9_265
*1992 FILLER_9_267
*1993 FILLER_9_27
*1994 FILLER_9_293
*1995 FILLER_9_3
*1996 FILLER_9_305
*1997 FILLER_9_317
*1998 FILLER_9_321
*1999 FILLER_9_323
*2000 FILLER_9_326
*2001 FILLER_9_334
*2002 FILLER_9_339
*2003 FILLER_9_351
*2004 FILLER_9_363
*2005 FILLER_9_366
*2006 FILLER_9_378
*2007 FILLER_9_382
*2008 FILLER_9_384
*2009 FILLER_9_39
*2010 FILLER_9_51
*2011 FILLER_9_55
*2012 FILLER_9_57
*2013 FILLER_9_69
*2014 FILLER_9_81
*2015 FILLER_9_93
*2016 PHY_EDGE_ROW_0_Left_39
*2017 PHY_EDGE_ROW_0_Right_0
*2018 PHY_EDGE_ROW_10_Left_49
*2019 PHY_EDGE_ROW_10_Right_10
*2020 PHY_EDGE_ROW_11_Left_50
*2021 PHY_EDGE_ROW_11_Right_11
*2022 PHY_EDGE_ROW_12_Left_51
*2023 PHY_EDGE_ROW_12_Right_12
*2024 PHY_EDGE_ROW_13_Left_52
*2025 PHY_EDGE_ROW_13_Right_13
*2026 PHY_EDGE_ROW_14_Left_53
*2027 PHY_EDGE_ROW_14_Right_14
*2028 PHY_EDGE_ROW_15_Left_54
*2029 PHY_EDGE_ROW_15_Right_15
*2030 PHY_EDGE_ROW_16_Left_55
*2031 PHY_EDGE_ROW_16_Right_16
*2032 PHY_EDGE_ROW_17_Left_56
*2033 PHY_EDGE_ROW_17_Right_17
*2034 PHY_EDGE_ROW_18_Left_57
*2035 PHY_EDGE_ROW_18_Right_18
*2036 PHY_EDGE_ROW_19_Left_58
*2037 PHY_EDGE_ROW_19_Right_19
*2038 PHY_EDGE_ROW_1_Left_40
*2039 PHY_EDGE_ROW_1_Right_1
*2040 PHY_EDGE_ROW_20_Left_59
*2041 PHY_EDGE_ROW_20_Right_20
*2042 PHY_EDGE_ROW_21_Left_60
*2043 PHY_EDGE_ROW_21_Right_21
*2044 PHY_EDGE_ROW_22_Left_61
*2045 PHY_EDGE_ROW_22_Right_22
*2046 PHY_EDGE_ROW_23_Left_62
*2047 PHY_EDGE_ROW_23_Right_23
*2048 PHY_EDGE_ROW_24_Left_63
*2049 PHY_EDGE_ROW_24_Right_24
*2050 PHY_EDGE_ROW_25_Left_64
*2051 PHY_EDGE_ROW_25_Right_25
*2052 PHY_EDGE_ROW_26_Left_65
*2053 PHY_EDGE_ROW_26_Right_26
*2054 PHY_EDGE_ROW_27_Left_66
*2055 PHY_EDGE_ROW_27_Right_27
*2056 PHY_EDGE_ROW_28_Left_67
*2057 PHY_EDGE_ROW_28_Right_28
*2058 PHY_EDGE_ROW_29_Left_68
*2059 PHY_EDGE_ROW_29_Right_29
*2060 PHY_EDGE_ROW_2_Left_41
*2061 PHY_EDGE_ROW_2_Right_2
*2062 PHY_EDGE_ROW_30_Left_69
*2063 PHY_EDGE_ROW_30_Right_30
*2064 PHY_EDGE_ROW_31_Left_70
*2065 PHY_EDGE_ROW_31_Right_31
*2066 PHY_EDGE_ROW_32_Left_71
*2067 PHY_EDGE_ROW_32_Right_32
*2068 PHY_EDGE_ROW_33_Left_72
*2069 PHY_EDGE_ROW_33_Right_33
*2070 PHY_EDGE_ROW_34_Left_73
*2071 PHY_EDGE_ROW_34_Right_34
*2072 PHY_EDGE_ROW_35_Left_74
*2073 PHY_EDGE_ROW_35_Right_35
*2074 PHY_EDGE_ROW_36_Left_75
*2075 PHY_EDGE_ROW_36_Right_36
*2076 PHY_EDGE_ROW_37_Left_76
*2077 PHY_EDGE_ROW_37_Right_37
*2078 PHY_EDGE_ROW_38_Left_77
*2079 PHY_EDGE_ROW_38_Right_38
*2080 PHY_EDGE_ROW_3_Left_42
*2081 PHY_EDGE_ROW_3_Right_3
*2082 PHY_EDGE_ROW_4_Left_43
*2083 PHY_EDGE_ROW_4_Right_4
*2084 PHY_EDGE_ROW_5_Left_44
*2085 PHY_EDGE_ROW_5_Right_5
*2086 PHY_EDGE_ROW_6_Left_45
*2087 PHY_EDGE_ROW_6_Right_6
*2088 PHY_EDGE_ROW_7_Left_46
*2089 PHY_EDGE_ROW_7_Right_7
*2090 PHY_EDGE_ROW_8_Left_47
*2091 PHY_EDGE_ROW_8_Right_8
*2092 PHY_EDGE_ROW_9_Left_48
*2093 PHY_EDGE_ROW_9_Right_9
*2094 TAP_TAPCELL_ROW_0_78
*2095 TAP_TAPCELL_ROW_0_79
*2096 TAP_TAPCELL_ROW_0_80
*2097 TAP_TAPCELL_ROW_0_81
*2098 TAP_TAPCELL_ROW_0_82
*2099 TAP_TAPCELL_ROW_0_83
*2100 TAP_TAPCELL_ROW_0_84
*2101 TAP_TAPCELL_ROW_0_85
*2102 TAP_TAPCELL_ROW_0_86
*2103 TAP_TAPCELL_ROW_0_87
*2104 TAP_TAPCELL_ROW_0_88
*2105 TAP_TAPCELL_ROW_0_89
*2106 TAP_TAPCELL_ROW_0_90
*2107 TAP_TAPCELL_ROW_10_149
*2108 TAP_TAPCELL_ROW_10_150
*2109 TAP_TAPCELL_ROW_10_151
*2110 TAP_TAPCELL_ROW_10_152
*2111 TAP_TAPCELL_ROW_10_153
*2112 TAP_TAPCELL_ROW_10_154
*2113 TAP_TAPCELL_ROW_10_155
*2114 TAP_TAPCELL_ROW_11_156
*2115 TAP_TAPCELL_ROW_11_157
*2116 TAP_TAPCELL_ROW_11_158
*2117 TAP_TAPCELL_ROW_11_159
*2118 TAP_TAPCELL_ROW_11_160
*2119 TAP_TAPCELL_ROW_11_161
*2120 TAP_TAPCELL_ROW_12_162
*2121 TAP_TAPCELL_ROW_12_163
*2122 TAP_TAPCELL_ROW_12_164
*2123 TAP_TAPCELL_ROW_12_165
*2124 TAP_TAPCELL_ROW_12_166
*2125 TAP_TAPCELL_ROW_12_167
*2126 TAP_TAPCELL_ROW_12_168
*2127 TAP_TAPCELL_ROW_13_169
*2128 TAP_TAPCELL_ROW_13_170
*2129 TAP_TAPCELL_ROW_13_171
*2130 TAP_TAPCELL_ROW_13_172
*2131 TAP_TAPCELL_ROW_13_173
*2132 TAP_TAPCELL_ROW_13_174
*2133 TAP_TAPCELL_ROW_14_175
*2134 TAP_TAPCELL_ROW_14_176
*2135 TAP_TAPCELL_ROW_14_177
*2136 TAP_TAPCELL_ROW_14_178
*2137 TAP_TAPCELL_ROW_14_179
*2138 TAP_TAPCELL_ROW_14_180
*2139 TAP_TAPCELL_ROW_14_181
*2140 TAP_TAPCELL_ROW_15_182
*2141 TAP_TAPCELL_ROW_15_183
*2142 TAP_TAPCELL_ROW_15_184
*2143 TAP_TAPCELL_ROW_15_185
*2144 TAP_TAPCELL_ROW_15_186
*2145 TAP_TAPCELL_ROW_15_187
*2146 TAP_TAPCELL_ROW_16_188
*2147 TAP_TAPCELL_ROW_16_189
*2148 TAP_TAPCELL_ROW_16_190
*2149 TAP_TAPCELL_ROW_16_191
*2150 TAP_TAPCELL_ROW_16_192
*2151 TAP_TAPCELL_ROW_16_193
*2152 TAP_TAPCELL_ROW_16_194
*2153 TAP_TAPCELL_ROW_17_195
*2154 TAP_TAPCELL_ROW_17_196
*2155 TAP_TAPCELL_ROW_17_197
*2156 TAP_TAPCELL_ROW_17_198
*2157 TAP_TAPCELL_ROW_17_199
*2158 TAP_TAPCELL_ROW_17_200
*2159 TAP_TAPCELL_ROW_18_201
*2160 TAP_TAPCELL_ROW_18_202
*2161 TAP_TAPCELL_ROW_18_203
*2162 TAP_TAPCELL_ROW_18_204
*2163 TAP_TAPCELL_ROW_18_205
*2164 TAP_TAPCELL_ROW_18_206
*2165 TAP_TAPCELL_ROW_18_207
*2166 TAP_TAPCELL_ROW_19_208
*2167 TAP_TAPCELL_ROW_19_209
*2168 TAP_TAPCELL_ROW_19_210
*2169 TAP_TAPCELL_ROW_19_211
*2170 TAP_TAPCELL_ROW_19_212
*2171 TAP_TAPCELL_ROW_19_213
*2172 TAP_TAPCELL_ROW_1_91
*2173 TAP_TAPCELL_ROW_1_92
*2174 TAP_TAPCELL_ROW_1_93
*2175 TAP_TAPCELL_ROW_1_94
*2176 TAP_TAPCELL_ROW_1_95
*2177 TAP_TAPCELL_ROW_1_96
*2178 TAP_TAPCELL_ROW_20_214
*2179 TAP_TAPCELL_ROW_20_215
*2180 TAP_TAPCELL_ROW_20_216
*2181 TAP_TAPCELL_ROW_20_217
*2182 TAP_TAPCELL_ROW_20_218
*2183 TAP_TAPCELL_ROW_20_219
*2184 TAP_TAPCELL_ROW_20_220
*2185 TAP_TAPCELL_ROW_21_221
*2186 TAP_TAPCELL_ROW_21_222
*2187 TAP_TAPCELL_ROW_21_223
*2188 TAP_TAPCELL_ROW_21_224
*2189 TAP_TAPCELL_ROW_21_225
*2190 TAP_TAPCELL_ROW_21_226
*2191 TAP_TAPCELL_ROW_22_227
*2192 TAP_TAPCELL_ROW_22_228
*2193 TAP_TAPCELL_ROW_22_229
*2194 TAP_TAPCELL_ROW_22_230
*2195 TAP_TAPCELL_ROW_22_231
*2196 TAP_TAPCELL_ROW_22_232
*2197 TAP_TAPCELL_ROW_22_233
*2198 TAP_TAPCELL_ROW_23_234
*2199 TAP_TAPCELL_ROW_23_235
*2200 TAP_TAPCELL_ROW_23_236
*2201 TAP_TAPCELL_ROW_23_237
*2202 TAP_TAPCELL_ROW_23_238
*2203 TAP_TAPCELL_ROW_23_239
*2204 TAP_TAPCELL_ROW_24_240
*2205 TAP_TAPCELL_ROW_24_241
*2206 TAP_TAPCELL_ROW_24_242
*2207 TAP_TAPCELL_ROW_24_243
*2208 TAP_TAPCELL_ROW_24_244
*2209 TAP_TAPCELL_ROW_24_245
*2210 TAP_TAPCELL_ROW_24_246
*2211 TAP_TAPCELL_ROW_25_247
*2212 TAP_TAPCELL_ROW_25_248
*2213 TAP_TAPCELL_ROW_25_249
*2214 TAP_TAPCELL_ROW_25_250
*2215 TAP_TAPCELL_ROW_25_251
*2216 TAP_TAPCELL_ROW_25_252
*2217 TAP_TAPCELL_ROW_26_253
*2218 TAP_TAPCELL_ROW_26_254
*2219 TAP_TAPCELL_ROW_26_255
*2220 TAP_TAPCELL_ROW_26_256
*2221 TAP_TAPCELL_ROW_26_257
*2222 TAP_TAPCELL_ROW_26_258
*2223 TAP_TAPCELL_ROW_26_259
*2224 TAP_TAPCELL_ROW_27_260
*2225 TAP_TAPCELL_ROW_27_261
*2226 TAP_TAPCELL_ROW_27_262
*2227 TAP_TAPCELL_ROW_27_263
*2228 TAP_TAPCELL_ROW_27_264
*2229 TAP_TAPCELL_ROW_27_265
*2230 TAP_TAPCELL_ROW_28_266
*2231 TAP_TAPCELL_ROW_28_267
*2232 TAP_TAPCELL_ROW_28_268
*2233 TAP_TAPCELL_ROW_28_269
*2234 TAP_TAPCELL_ROW_28_270
*2235 TAP_TAPCELL_ROW_28_271
*2236 TAP_TAPCELL_ROW_28_272
*2237 TAP_TAPCELL_ROW_29_273
*2238 TAP_TAPCELL_ROW_29_274
*2239 TAP_TAPCELL_ROW_29_275
*2240 TAP_TAPCELL_ROW_29_276
*2241 TAP_TAPCELL_ROW_29_277
*2242 TAP_TAPCELL_ROW_29_278
*2243 TAP_TAPCELL_ROW_2_100
*2244 TAP_TAPCELL_ROW_2_101
*2245 TAP_TAPCELL_ROW_2_102
*2246 TAP_TAPCELL_ROW_2_103
*2247 TAP_TAPCELL_ROW_2_97
*2248 TAP_TAPCELL_ROW_2_98
*2249 TAP_TAPCELL_ROW_2_99
*2250 TAP_TAPCELL_ROW_30_279
*2251 TAP_TAPCELL_ROW_30_280
*2252 TAP_TAPCELL_ROW_30_281
*2253 TAP_TAPCELL_ROW_30_282
*2254 TAP_TAPCELL_ROW_30_283
*2255 TAP_TAPCELL_ROW_30_284
*2256 TAP_TAPCELL_ROW_30_285
*2257 TAP_TAPCELL_ROW_31_286
*2258 TAP_TAPCELL_ROW_31_287
*2259 TAP_TAPCELL_ROW_31_288
*2260 TAP_TAPCELL_ROW_31_289
*2261 TAP_TAPCELL_ROW_31_290
*2262 TAP_TAPCELL_ROW_31_291
*2263 TAP_TAPCELL_ROW_32_292
*2264 TAP_TAPCELL_ROW_32_293
*2265 TAP_TAPCELL_ROW_32_294
*2266 TAP_TAPCELL_ROW_32_295
*2267 TAP_TAPCELL_ROW_32_296
*2268 TAP_TAPCELL_ROW_32_297
*2269 TAP_TAPCELL_ROW_32_298
*2270 TAP_TAPCELL_ROW_33_299
*2271 TAP_TAPCELL_ROW_33_300
*2272 TAP_TAPCELL_ROW_33_301
*2273 TAP_TAPCELL_ROW_33_302
*2274 TAP_TAPCELL_ROW_33_303
*2275 TAP_TAPCELL_ROW_33_304
*2276 TAP_TAPCELL_ROW_34_305
*2277 TAP_TAPCELL_ROW_34_306
*2278 TAP_TAPCELL_ROW_34_307
*2279 TAP_TAPCELL_ROW_34_308
*2280 TAP_TAPCELL_ROW_34_309
*2281 TAP_TAPCELL_ROW_34_310
*2282 TAP_TAPCELL_ROW_34_311
*2283 TAP_TAPCELL_ROW_35_312
*2284 TAP_TAPCELL_ROW_35_313
*2285 TAP_TAPCELL_ROW_35_314
*2286 TAP_TAPCELL_ROW_35_315
*2287 TAP_TAPCELL_ROW_35_316
*2288 TAP_TAPCELL_ROW_35_317
*2289 TAP_TAPCELL_ROW_36_318
*2290 TAP_TAPCELL_ROW_36_319
*2291 TAP_TAPCELL_ROW_36_320
*2292 TAP_TAPCELL_ROW_36_321
*2293 TAP_TAPCELL_ROW_36_322
*2294 TAP_TAPCELL_ROW_36_323
*2295 TAP_TAPCELL_ROW_36_324
*2296 TAP_TAPCELL_ROW_37_325
*2297 TAP_TAPCELL_ROW_37_326
*2298 TAP_TAPCELL_ROW_37_327
*2299 TAP_TAPCELL_ROW_37_328
*2300 TAP_TAPCELL_ROW_37_329
*2301 TAP_TAPCELL_ROW_37_330
*2302 TAP_TAPCELL_ROW_38_331
*2303 TAP_TAPCELL_ROW_38_332
*2304 TAP_TAPCELL_ROW_38_333
*2305 TAP_TAPCELL_ROW_38_334
*2306 TAP_TAPCELL_ROW_38_335
*2307 TAP_TAPCELL_ROW_38_336
*2308 TAP_TAPCELL_ROW_38_337
*2309 TAP_TAPCELL_ROW_38_338
*2310 TAP_TAPCELL_ROW_38_339
*2311 TAP_TAPCELL_ROW_38_340
*2312 TAP_TAPCELL_ROW_38_341
*2313 TAP_TAPCELL_ROW_38_342
*2314 TAP_TAPCELL_ROW_38_343
*2315 TAP_TAPCELL_ROW_3_104
*2316 TAP_TAPCELL_ROW_3_105
*2317 TAP_TAPCELL_ROW_3_106
*2318 TAP_TAPCELL_ROW_3_107
*2319 TAP_TAPCELL_ROW_3_108
*2320 TAP_TAPCELL_ROW_3_109
*2321 TAP_TAPCELL_ROW_4_110
*2322 TAP_TAPCELL_ROW_4_111
*2323 TAP_TAPCELL_ROW_4_112
*2324 TAP_TAPCELL_ROW_4_113
*2325 TAP_TAPCELL_ROW_4_114
*2326 TAP_TAPCELL_ROW_4_115
*2327 TAP_TAPCELL_ROW_4_116
*2328 TAP_TAPCELL_ROW_5_117
*2329 TAP_TAPCELL_ROW_5_118
*2330 TAP_TAPCELL_ROW_5_119
*2331 TAP_TAPCELL_ROW_5_120
*2332 TAP_TAPCELL_ROW_5_121
*2333 TAP_TAPCELL_ROW_5_122
*2334 TAP_TAPCELL_ROW_6_123
*2335 TAP_TAPCELL_ROW_6_124
*2336 TAP_TAPCELL_ROW_6_125
*2337 TAP_TAPCELL_ROW_6_126
*2338 TAP_TAPCELL_ROW_6_127
*2339 TAP_TAPCELL_ROW_6_128
*2340 TAP_TAPCELL_ROW_6_129
*2341 TAP_TAPCELL_ROW_7_130
*2342 TAP_TAPCELL_ROW_7_131
*2343 TAP_TAPCELL_ROW_7_132
*2344 TAP_TAPCELL_ROW_7_133
*2345 TAP_TAPCELL_ROW_7_134
*2346 TAP_TAPCELL_ROW_7_135
*2347 TAP_TAPCELL_ROW_8_136
*2348 TAP_TAPCELL_ROW_8_137
*2349 TAP_TAPCELL_ROW_8_138
*2350 TAP_TAPCELL_ROW_8_139
*2351 TAP_TAPCELL_ROW_8_140
*2352 TAP_TAPCELL_ROW_8_141
*2353 TAP_TAPCELL_ROW_8_142
*2354 TAP_TAPCELL_ROW_9_143
*2355 TAP_TAPCELL_ROW_9_144
*2356 TAP_TAPCELL_ROW_9_145
*2357 TAP_TAPCELL_ROW_9_146
*2358 TAP_TAPCELL_ROW_9_147
*2359 TAP_TAPCELL_ROW_9_148
*2360 _0_
*2361 _1_
*2362 ctrl_diode_I\[0\]\.cell0_I
*2363 ctrl_diode_I\[1\]\.cell0_I
*2364 ctrl_diode_I\[2\]\.cell0_I
*2365 ctrl_ibuf_I\[0\]\.genblk1\.cell0_I
*2366 ctrl_ibuf_I\[1\]\.genblk1\.cell0_I
*2367 ctrl_ibuf_I\[2\]\.genblk1\.cell0_I
*2368 genblk1\[0\]\.tbuf_pol_spine_ow_I\.cell0_I
*2369 genblk1\[0\]\.tbuf_spine_ow_I\[0\]\.genblk1\.cell0_I
*2370 genblk1\[0\]\.tbuf_spine_ow_I\[10\]\.genblk1\.cell0_I
*2371 genblk1\[0\]\.tbuf_spine_ow_I\[11\]\.genblk1\.cell0_I
*2372 genblk1\[0\]\.tbuf_spine_ow_I\[12\]\.genblk1\.cell0_I
*2373 genblk1\[0\]\.tbuf_spine_ow_I\[13\]\.genblk1\.cell0_I
*2374 genblk1\[0\]\.tbuf_spine_ow_I\[14\]\.genblk1\.cell0_I
*2375 genblk1\[0\]\.tbuf_spine_ow_I\[15\]\.genblk1\.cell0_I
*2376 genblk1\[0\]\.tbuf_spine_ow_I\[16\]\.genblk1\.cell0_I
*2377 genblk1\[0\]\.tbuf_spine_ow_I\[17\]\.genblk1\.cell0_I
*2378 genblk1\[0\]\.tbuf_spine_ow_I\[18\]\.genblk1\.cell0_I
*2379 genblk1\[0\]\.tbuf_spine_ow_I\[19\]\.genblk1\.cell0_I
*2380 genblk1\[0\]\.tbuf_spine_ow_I\[1\]\.genblk1\.cell0_I
*2381 genblk1\[0\]\.tbuf_spine_ow_I\[20\]\.genblk1\.cell0_I
*2382 genblk1\[0\]\.tbuf_spine_ow_I\[21\]\.genblk1\.cell0_I
*2383 genblk1\[0\]\.tbuf_spine_ow_I\[22\]\.genblk1\.cell0_I
*2384 genblk1\[0\]\.tbuf_spine_ow_I\[23\]\.genblk1\.cell0_I
*2385 genblk1\[0\]\.tbuf_spine_ow_I\[2\]\.genblk1\.cell0_I
*2386 genblk1\[0\]\.tbuf_spine_ow_I\[3\]\.genblk1\.cell0_I
*2387 genblk1\[0\]\.tbuf_spine_ow_I\[4\]\.genblk1\.cell0_I
*2388 genblk1\[0\]\.tbuf_spine_ow_I\[5\]\.genblk1\.cell0_I
*2389 genblk1\[0\]\.tbuf_spine_ow_I\[6\]\.genblk1\.cell0_I
*2390 genblk1\[0\]\.tbuf_spine_ow_I\[7\]\.genblk1\.cell0_I
*2391 genblk1\[0\]\.tbuf_spine_ow_I\[8\]\.genblk1\.cell0_I
*2392 genblk1\[0\]\.tbuf_spine_ow_I\[9\]\.genblk1\.cell0_I
*2393 genblk1\[0\]\.tie_I\.cell_I
*2394 genblk1\[1\]\.tbuf_pol_spine_ow_I\.cell0_I
*2395 genblk1\[1\]\.tbuf_spine_ow_I\[0\]\.genblk1\.cell0_I
*2396 genblk1\[1\]\.tbuf_spine_ow_I\[10\]\.genblk1\.cell0_I
*2397 genblk1\[1\]\.tbuf_spine_ow_I\[11\]\.genblk1\.cell0_I
*2398 genblk1\[1\]\.tbuf_spine_ow_I\[12\]\.genblk1\.cell0_I
*2399 genblk1\[1\]\.tbuf_spine_ow_I\[13\]\.genblk1\.cell0_I
*2400 genblk1\[1\]\.tbuf_spine_ow_I\[14\]\.genblk1\.cell0_I
*2401 genblk1\[1\]\.tbuf_spine_ow_I\[15\]\.genblk1\.cell0_I
*2402 genblk1\[1\]\.tbuf_spine_ow_I\[16\]\.genblk1\.cell0_I
*2403 genblk1\[1\]\.tbuf_spine_ow_I\[17\]\.genblk1\.cell0_I
*2404 genblk1\[1\]\.tbuf_spine_ow_I\[18\]\.genblk1\.cell0_I
*2405 genblk1\[1\]\.tbuf_spine_ow_I\[19\]\.genblk1\.cell0_I
*2406 genblk1\[1\]\.tbuf_spine_ow_I\[1\]\.genblk1\.cell0_I
*2407 genblk1\[1\]\.tbuf_spine_ow_I\[20\]\.genblk1\.cell0_I
*2408 genblk1\[1\]\.tbuf_spine_ow_I\[21\]\.genblk1\.cell0_I
*2409 genblk1\[1\]\.tbuf_spine_ow_I\[22\]\.genblk1\.cell0_I
*2410 genblk1\[1\]\.tbuf_spine_ow_I\[23\]\.genblk1\.cell0_I
*2411 genblk1\[1\]\.tbuf_spine_ow_I\[2\]\.genblk1\.cell0_I
*2412 genblk1\[1\]\.tbuf_spine_ow_I\[3\]\.genblk1\.cell0_I
*2413 genblk1\[1\]\.tbuf_spine_ow_I\[4\]\.genblk1\.cell0_I
*2414 genblk1\[1\]\.tbuf_spine_ow_I\[5\]\.genblk1\.cell0_I
*2415 genblk1\[1\]\.tbuf_spine_ow_I\[6\]\.genblk1\.cell0_I
*2416 genblk1\[1\]\.tbuf_spine_ow_I\[7\]\.genblk1\.cell0_I
*2417 genblk1\[1\]\.tbuf_spine_ow_I\[8\]\.genblk1\.cell0_I
*2418 genblk1\[1\]\.tbuf_spine_ow_I\[9\]\.genblk1\.cell0_I
*2419 genblk1\[1\]\.tie_I\.cell_I
*2420 genblk2\[0\]\.ctrl_ena_buf_I\.genblk1\.cell0_I
*2421 genblk2\[0\]\.pad_ui_in_buf_I\[0\]\.genblk1\.cell0_I
*2422 genblk2\[0\]\.pad_ui_in_buf_I\[0\]\.genblk1\.cell1_I
*2423 genblk2\[0\]\.pad_ui_in_buf_I\[1\]\.genblk1\.cell0_I
*2424 genblk2\[0\]\.pad_ui_in_buf_I\[1\]\.genblk1\.cell1_I
*2425 genblk2\[0\]\.pad_ui_in_buf_I\[2\]\.genblk1\.cell0_I
*2426 genblk2\[0\]\.pad_ui_in_buf_I\[2\]\.genblk1\.cell1_I
*2427 genblk2\[0\]\.pad_ui_in_buf_I\[3\]\.genblk1\.cell0_I
*2428 genblk2\[0\]\.pad_ui_in_buf_I\[3\]\.genblk1\.cell1_I
*2429 genblk2\[0\]\.pad_ui_in_buf_I\[4\]\.genblk1\.cell0_I
*2430 genblk2\[0\]\.pad_ui_in_buf_I\[4\]\.genblk1\.cell1_I
*2431 genblk2\[0\]\.pad_ui_in_buf_I\[5\]\.genblk1\.cell0_I
*2432 genblk2\[0\]\.pad_ui_in_buf_I\[5\]\.genblk1\.cell1_I
*2433 genblk2\[0\]\.pad_ui_in_buf_I\[6\]\.genblk1\.cell0_I
*2434 genblk2\[0\]\.pad_ui_in_buf_I\[6\]\.genblk1\.cell1_I
*2435 genblk2\[0\]\.pad_ui_in_buf_I\[7\]\.genblk1\.cell0_I
*2436 genblk2\[0\]\.pad_ui_in_buf_I\[7\]\.genblk1\.cell1_I
*2437 genblk2\[0\]\.pad_ui_in_buf_I\[8\]\.genblk1\.cell0_I
*2438 genblk2\[0\]\.pad_ui_in_buf_I\[8\]\.genblk1\.cell1_I
*2439 genblk2\[0\]\.pad_ui_in_buf_I\[9\]\.genblk1\.cell0_I
*2440 genblk2\[0\]\.pad_ui_in_buf_I\[9\]\.genblk1\.cell1_I
*2441 genblk2\[0\]\.pad_uio_in_buf_I\[0\]\.genblk1\.cell0_I
*2442 genblk2\[0\]\.pad_uio_in_buf_I\[0\]\.genblk1\.cell1_I
*2443 genblk2\[0\]\.pad_uio_in_buf_I\[1\]\.genblk1\.cell0_I
*2444 genblk2\[0\]\.pad_uio_in_buf_I\[1\]\.genblk1\.cell1_I
*2445 genblk2\[0\]\.pad_uio_in_buf_I\[2\]\.genblk1\.cell0_I
*2446 genblk2\[0\]\.pad_uio_in_buf_I\[2\]\.genblk1\.cell1_I
*2447 genblk2\[0\]\.pad_uio_in_buf_I\[3\]\.genblk1\.cell0_I
*2448 genblk2\[0\]\.pad_uio_in_buf_I\[3\]\.genblk1\.cell1_I
*2449 genblk2\[0\]\.pad_uio_in_buf_I\[4\]\.genblk1\.cell0_I
*2450 genblk2\[0\]\.pad_uio_in_buf_I\[4\]\.genblk1\.cell1_I
*2451 genblk2\[0\]\.pad_uio_in_buf_I\[5\]\.genblk1\.cell0_I
*2452 genblk2\[0\]\.pad_uio_in_buf_I\[5\]\.genblk1\.cell1_I
*2453 genblk2\[0\]\.pad_uio_in_buf_I\[6\]\.genblk1\.cell0_I
*2454 genblk2\[0\]\.pad_uio_in_buf_I\[6\]\.genblk1\.cell1_I
*2455 genblk2\[0\]\.pad_uio_in_buf_I\[7\]\.genblk1\.cell0_I
*2456 genblk2\[0\]\.pad_uio_in_buf_I\[7\]\.genblk1\.cell1_I
*2457 genblk2\[0\]\.sel_cnt_buf_I\[0\]\.genblk1\.cell0_I
*2458 genblk2\[0\]\.sel_cnt_buf_I\[1\]\.genblk1\.cell0_I
*2459 genblk2\[0\]\.sel_cnt_buf_I\[2\]\.genblk1\.cell0_I
*2460 genblk2\[0\]\.sel_cnt_buf_I\[3\]\.genblk1\.cell0_I
*2461 genblk2\[0\]\.sel_cnt_buf_I\[4\]\.genblk1\.cell0_I
*2462 genblk2\[0\]\.sel_cnt_buf_I\[5\]\.genblk1\.cell0_I
*2463 genblk2\[0\]\.sel_cnt_buf_I\[6\]\.genblk1\.cell0_I
*2464 genblk2\[0\]\.sel_cnt_buf_I\[7\]\.genblk1\.cell0_I
*2465 genblk2\[0\]\.sel_cnt_buf_I\[8\]\.genblk1\.cell0_I
*2466 genblk2\[0\]\.tie_guard_I\[0\]\.cell_I
*2467 genblk2\[0\]\.tie_guard_I\[1\]\.cell_I
*2468 genblk2\[1\]\.ctrl_ena_buf_I\.genblk1\.cell0_I
*2469 genblk2\[1\]\.pad_ui_in_buf_I\[0\]\.genblk1\.cell0_I
*2470 genblk2\[1\]\.pad_ui_in_buf_I\[0\]\.genblk1\.cell1_I
*2471 genblk2\[1\]\.pad_ui_in_buf_I\[1\]\.genblk1\.cell0_I
*2472 genblk2\[1\]\.pad_ui_in_buf_I\[1\]\.genblk1\.cell1_I
*2473 genblk2\[1\]\.pad_ui_in_buf_I\[2\]\.genblk1\.cell0_I
*2474 genblk2\[1\]\.pad_ui_in_buf_I\[2\]\.genblk1\.cell1_I
*2475 genblk2\[1\]\.pad_ui_in_buf_I\[3\]\.genblk1\.cell0_I
*2476 genblk2\[1\]\.pad_ui_in_buf_I\[3\]\.genblk1\.cell1_I
*2477 genblk2\[1\]\.pad_ui_in_buf_I\[4\]\.genblk1\.cell0_I
*2478 genblk2\[1\]\.pad_ui_in_buf_I\[4\]\.genblk1\.cell1_I
*2479 genblk2\[1\]\.pad_ui_in_buf_I\[5\]\.genblk1\.cell0_I
*2480 genblk2\[1\]\.pad_ui_in_buf_I\[5\]\.genblk1\.cell1_I
*2481 genblk2\[1\]\.pad_ui_in_buf_I\[6\]\.genblk1\.cell0_I
*2482 genblk2\[1\]\.pad_ui_in_buf_I\[6\]\.genblk1\.cell1_I
*2483 genblk2\[1\]\.pad_ui_in_buf_I\[7\]\.genblk1\.cell0_I
*2484 genblk2\[1\]\.pad_ui_in_buf_I\[7\]\.genblk1\.cell1_I
*2485 genblk2\[1\]\.pad_ui_in_buf_I\[8\]\.genblk1\.cell0_I
*2486 genblk2\[1\]\.pad_ui_in_buf_I\[8\]\.genblk1\.cell1_I
*2487 genblk2\[1\]\.pad_ui_in_buf_I\[9\]\.genblk1\.cell0_I
*2488 genblk2\[1\]\.pad_ui_in_buf_I\[9\]\.genblk1\.cell1_I
*2489 genblk2\[1\]\.pad_uio_in_buf_I\[0\]\.genblk1\.cell0_I
*2490 genblk2\[1\]\.pad_uio_in_buf_I\[0\]\.genblk1\.cell1_I
*2491 genblk2\[1\]\.pad_uio_in_buf_I\[1\]\.genblk1\.cell0_I
*2492 genblk2\[1\]\.pad_uio_in_buf_I\[1\]\.genblk1\.cell1_I
*2493 genblk2\[1\]\.pad_uio_in_buf_I\[2\]\.genblk1\.cell0_I
*2494 genblk2\[1\]\.pad_uio_in_buf_I\[2\]\.genblk1\.cell1_I
*2495 genblk2\[1\]\.pad_uio_in_buf_I\[3\]\.genblk1\.cell0_I
*2496 genblk2\[1\]\.pad_uio_in_buf_I\[3\]\.genblk1\.cell1_I
*2497 genblk2\[1\]\.pad_uio_in_buf_I\[4\]\.genblk1\.cell0_I
*2498 genblk2\[1\]\.pad_uio_in_buf_I\[4\]\.genblk1\.cell1_I
*2499 genblk2\[1\]\.pad_uio_in_buf_I\[5\]\.genblk1\.cell0_I
*2500 genblk2\[1\]\.pad_uio_in_buf_I\[5\]\.genblk1\.cell1_I
*2501 genblk2\[1\]\.pad_uio_in_buf_I\[6\]\.genblk1\.cell0_I
*2502 genblk2\[1\]\.pad_uio_in_buf_I\[6\]\.genblk1\.cell1_I
*2503 genblk2\[1\]\.pad_uio_in_buf_I\[7\]\.genblk1\.cell0_I
*2504 genblk2\[1\]\.pad_uio_in_buf_I\[7\]\.genblk1\.cell1_I
*2505 genblk2\[1\]\.sel_cnt_buf_I\[0\]\.genblk1\.cell0_I
*2506 genblk2\[1\]\.sel_cnt_buf_I\[1\]\.genblk1\.cell0_I
*2507 genblk2\[1\]\.sel_cnt_buf_I\[2\]\.genblk1\.cell0_I
*2508 genblk2\[1\]\.sel_cnt_buf_I\[3\]\.genblk1\.cell0_I
*2509 genblk2\[1\]\.sel_cnt_buf_I\[4\]\.genblk1\.cell0_I
*2510 genblk2\[1\]\.sel_cnt_buf_I\[5\]\.genblk1\.cell0_I
*2511 genblk2\[1\]\.sel_cnt_buf_I\[6\]\.genblk1\.cell0_I
*2512 genblk2\[1\]\.sel_cnt_buf_I\[7\]\.genblk1\.cell0_I
*2513 genblk2\[1\]\.sel_cnt_buf_I\[8\]\.genblk1\.cell0_I
*2514 genblk2\[1\]\.tie_guard_I\[0\]\.cell_I
*2515 genblk2\[1\]\.tie_guard_I\[1\]\.cell_I
*2516 pad_ui_in_diode_I\[0\]\.cell0_I
*2517 pad_ui_in_diode_I\[1\]\.cell0_I
*2518 pad_ui_in_diode_I\[2\]\.cell0_I
*2519 pad_ui_in_diode_I\[3\]\.cell0_I
*2520 pad_ui_in_diode_I\[4\]\.cell0_I
*2521 pad_ui_in_diode_I\[5\]\.cell0_I
*2522 pad_ui_in_diode_I\[6\]\.cell0_I
*2523 pad_ui_in_diode_I\[7\]\.cell0_I
*2524 pad_ui_in_diode_I\[8\]\.cell0_I
*2525 pad_ui_in_diode_I\[9\]\.cell0_I
*2526 pad_uio_in_diode_I\[0\]\.cell0_I
*2527 pad_uio_in_diode_I\[1\]\.cell0_I
*2528 pad_uio_in_diode_I\[2\]\.cell0_I
*2529 pad_uio_in_diode_I\[3\]\.cell0_I
*2530 pad_uio_in_diode_I\[4\]\.cell0_I
*2531 pad_uio_in_diode_I\[5\]\.cell0_I
*2532 pad_uio_in_diode_I\[6\]\.cell0_I
*2533 pad_uio_in_diode_I\[7\]\.cell0_I
*2534 sel_cnt_gen\[0\]\.cnt_bit_I\.cell0_I
*2535 sel_cnt_gen\[1\]\.cnt_bit_I\.cell0_I
*2536 sel_cnt_gen\[2\]\.cnt_bit_I\.cell0_I
*2537 sel_cnt_gen\[3\]\.cnt_bit_I\.cell0_I
*2538 sel_cnt_gen\[4\]\.cnt_bit_I\.cell0_I
*2539 sel_cnt_gen\[5\]\.cnt_bit_I\.cell0_I
*2540 sel_cnt_gen\[6\]\.cnt_bit_I\.cell0_I
*2541 sel_cnt_gen\[7\]\.cnt_bit_I\.cell0_I
*2542 sel_cnt_gen\[8\]\.cnt_bit_I\.cell0_I
*2543 sel_cnt_gen\[9\]\.cnt_bit_I\.cell0_I
*2544 side_ena0_buf_I\.genblk1\.cell0_I
*2545 side_ena0_buf_I\.genblk1\.cell1_I
*2546 side_ena0_gen_I\.genblk1\.cell0_I
*2547 side_ena1_buf_I\.genblk1\.cell0_I
*2548 side_ena1_buf_I\.genblk1\.cell1_I
*2549 side_sel_buf_I\.genblk1\.cell0_I
*2550 spine_diode_I\[0\]\.cell0_I
*2551 spine_diode_I\[10\]\.cell0_I
*2552 spine_diode_I\[11\]\.cell0_I
*2553 spine_diode_I\[12\]\.cell0_I
*2554 spine_diode_I\[13\]\.cell0_I
*2555 spine_diode_I\[14\]\.cell0_I
*2556 spine_diode_I\[15\]\.cell0_I
*2557 spine_diode_I\[16\]\.cell0_I
*2558 spine_diode_I\[17\]\.cell0_I
*2559 spine_diode_I\[18\]\.cell0_I
*2560 spine_diode_I\[19\]\.cell0_I
*2561 spine_diode_I\[1\]\.cell0_I
*2562 spine_diode_I\[20\]\.cell0_I
*2563 spine_diode_I\[21\]\.cell0_I
*2564 spine_diode_I\[22\]\.cell0_I
*2565 spine_diode_I\[23\]\.cell0_I
*2566 spine_diode_I\[24\]\.cell0_I
*2567 spine_diode_I\[25\]\.cell0_I
*2568 spine_diode_I\[26\]\.cell0_I
*2569 spine_diode_I\[27\]\.cell0_I
*2570 spine_diode_I\[28\]\.cell0_I
*2571 spine_diode_I\[29\]\.cell0_I
*2572 spine_diode_I\[2\]\.cell0_I
*2573 spine_diode_I\[30\]\.cell0_I
*2574 spine_diode_I\[31\]\.cell0_I
*2575 spine_diode_I\[32\]\.cell0_I
*2576 spine_diode_I\[33\]\.cell0_I
*2577 spine_diode_I\[34\]\.cell0_I
*2578 spine_diode_I\[35\]\.cell0_I
*2579 spine_diode_I\[36\]\.cell0_I
*2580 spine_diode_I\[37\]\.cell0_I
*2581 spine_diode_I\[38\]\.cell0_I
*2582 spine_diode_I\[39\]\.cell0_I
*2583 spine_diode_I\[3\]\.cell0_I
*2584 spine_diode_I\[40\]\.cell0_I
*2585 spine_diode_I\[41\]\.cell0_I
*2586 spine_diode_I\[42\]\.cell0_I
*2587 spine_diode_I\[43\]\.cell0_I
*2588 spine_diode_I\[44\]\.cell0_I
*2589 spine_diode_I\[45\]\.cell0_I
*2590 spine_diode_I\[46\]\.cell0_I
*2591 spine_diode_I\[47\]\.cell0_I
*2592 spine_diode_I\[48\]\.cell0_I
*2593 spine_diode_I\[49\]\.cell0_I
*2594 spine_diode_I\[4\]\.cell0_I
*2595 spine_diode_I\[50\]\.cell0_I
*2596 spine_diode_I\[51\]\.cell0_I
*2597 spine_diode_I\[5\]\.cell0_I
*2598 spine_diode_I\[6\]\.cell0_I
*2599 spine_diode_I\[7\]\.cell0_I
*2600 spine_diode_I\[8\]\.cell0_I
*2601 spine_diode_I\[9\]\.cell0_I
*2602 tie_I\.cell_I
*2603 uio_oe_ibuf_I\[0\]\.genblk1\.cell0_I
*2604 uio_oe_ibuf_I\[10\]\.genblk1\.cell0_I
*2605 uio_oe_ibuf_I\[11\]\.genblk1\.cell0_I
*2606 uio_oe_ibuf_I\[12\]\.genblk1\.cell0_I
*2607 uio_oe_ibuf_I\[13\]\.genblk1\.cell0_I
*2608 uio_oe_ibuf_I\[14\]\.genblk1\.cell0_I
*2609 uio_oe_ibuf_I\[15\]\.genblk1\.cell0_I
*2610 uio_oe_ibuf_I\[1\]\.genblk1\.cell0_I
*2611 uio_oe_ibuf_I\[2\]\.genblk1\.cell0_I
*2612 uio_oe_ibuf_I\[3\]\.genblk1\.cell0_I
*2613 uio_oe_ibuf_I\[4\]\.genblk1\.cell0_I
*2614 uio_oe_ibuf_I\[5\]\.genblk1\.cell0_I
*2615 uio_oe_ibuf_I\[6\]\.genblk1\.cell0_I
*2616 uio_oe_ibuf_I\[7\]\.genblk1\.cell0_I
*2617 uio_oe_ibuf_I\[8\]\.genblk1\.cell0_I
*2618 uio_oe_ibuf_I\[9\]\.genblk1\.cell0_I
*2619 uio_oe_mux_I\[0\]\.cell0_I
*2620 uio_oe_mux_I\[1\]\.cell0_I
*2621 uio_oe_mux_I\[2\]\.cell0_I
*2622 uio_oe_mux_I\[3\]\.cell0_I
*2623 uio_oe_mux_I\[4\]\.cell0_I
*2624 uio_oe_mux_I\[5\]\.cell0_I
*2625 uio_oe_mux_I\[6\]\.cell0_I
*2626 uio_oe_mux_I\[7\]\.cell0_I
*2627 uio_oe_obuf_I\[0\]\.genblk1\.cell0_I
*2628 uio_oe_obuf_I\[1\]\.genblk1\.cell0_I
*2629 uio_oe_obuf_I\[2\]\.genblk1\.cell0_I
*2630 uio_oe_obuf_I\[3\]\.genblk1\.cell0_I
*2631 uio_oe_obuf_I\[4\]\.genblk1\.cell0_I
*2632 uio_oe_obuf_I\[5\]\.genblk1\.cell0_I
*2633 uio_oe_obuf_I\[6\]\.genblk1\.cell0_I
*2634 uio_oe_obuf_I\[7\]\.genblk1\.cell0_I
*2635 uio_out_ibuf_I\[0\]\.genblk1\.cell0_I
*2636 uio_out_ibuf_I\[10\]\.genblk1\.cell0_I
*2637 uio_out_ibuf_I\[11\]\.genblk1\.cell0_I
*2638 uio_out_ibuf_I\[12\]\.genblk1\.cell0_I
*2639 uio_out_ibuf_I\[13\]\.genblk1\.cell0_I
*2640 uio_out_ibuf_I\[14\]\.genblk1\.cell0_I
*2641 uio_out_ibuf_I\[15\]\.genblk1\.cell0_I
*2642 uio_out_ibuf_I\[1\]\.genblk1\.cell0_I
*2643 uio_out_ibuf_I\[2\]\.genblk1\.cell0_I
*2644 uio_out_ibuf_I\[3\]\.genblk1\.cell0_I
*2645 uio_out_ibuf_I\[4\]\.genblk1\.cell0_I
*2646 uio_out_ibuf_I\[5\]\.genblk1\.cell0_I
*2647 uio_out_ibuf_I\[6\]\.genblk1\.cell0_I
*2648 uio_out_ibuf_I\[7\]\.genblk1\.cell0_I
*2649 uio_out_ibuf_I\[8\]\.genblk1\.cell0_I
*2650 uio_out_ibuf_I\[9\]\.genblk1\.cell0_I
*2651 uio_out_mux_I\[0\]\.cell0_I
*2652 uio_out_mux_I\[1\]\.cell0_I
*2653 uio_out_mux_I\[2\]\.cell0_I
*2654 uio_out_mux_I\[3\]\.cell0_I
*2655 uio_out_mux_I\[4\]\.cell0_I
*2656 uio_out_mux_I\[5\]\.cell0_I
*2657 uio_out_mux_I\[6\]\.cell0_I
*2658 uio_out_mux_I\[7\]\.cell0_I
*2659 uio_out_obuf_I\[0\]\.genblk1\.cell0_I
*2660 uio_out_obuf_I\[1\]\.genblk1\.cell0_I
*2661 uio_out_obuf_I\[2\]\.genblk1\.cell0_I
*2662 uio_out_obuf_I\[3\]\.genblk1\.cell0_I
*2663 uio_out_obuf_I\[4\]\.genblk1\.cell0_I
*2664 uio_out_obuf_I\[5\]\.genblk1\.cell0_I
*2665 uio_out_obuf_I\[6\]\.genblk1\.cell0_I
*2666 uio_out_obuf_I\[7\]\.genblk1\.cell0_I
*2667 uo_out_ibuf_I\[0\]\.genblk1\.cell0_I
*2668 uo_out_ibuf_I\[10\]\.genblk1\.cell0_I
*2669 uo_out_ibuf_I\[11\]\.genblk1\.cell0_I
*2670 uo_out_ibuf_I\[12\]\.genblk1\.cell0_I
*2671 uo_out_ibuf_I\[13\]\.genblk1\.cell0_I
*2672 uo_out_ibuf_I\[14\]\.genblk1\.cell0_I
*2673 uo_out_ibuf_I\[15\]\.genblk1\.cell0_I
*2674 uo_out_ibuf_I\[1\]\.genblk1\.cell0_I
*2675 uo_out_ibuf_I\[2\]\.genblk1\.cell0_I
*2676 uo_out_ibuf_I\[3\]\.genblk1\.cell0_I
*2677 uo_out_ibuf_I\[4\]\.genblk1\.cell0_I
*2678 uo_out_ibuf_I\[5\]\.genblk1\.cell0_I
*2679 uo_out_ibuf_I\[6\]\.genblk1\.cell0_I
*2680 uo_out_ibuf_I\[7\]\.genblk1\.cell0_I
*2681 uo_out_ibuf_I\[8\]\.genblk1\.cell0_I
*2682 uo_out_ibuf_I\[9\]\.genblk1\.cell0_I
*2683 uo_out_mux_I\[0\]\.cell0_I
*2684 uo_out_mux_I\[1\]\.cell0_I
*2685 uo_out_mux_I\[2\]\.cell0_I
*2686 uo_out_mux_I\[3\]\.cell0_I
*2687 uo_out_mux_I\[4\]\.cell0_I
*2688 uo_out_mux_I\[5\]\.cell0_I
*2689 uo_out_mux_I\[6\]\.cell0_I
*2690 uo_out_mux_I\[7\]\.cell0_I
*2691 uo_out_obuf_I\[0\]\.genblk1\.cell0_I
*2692 uo_out_obuf_I\[1\]\.genblk1\.cell0_I
*2693 uo_out_obuf_I\[2\]\.genblk1\.cell0_I
*2694 uo_out_obuf_I\[3\]\.genblk1\.cell0_I
*2695 uo_out_obuf_I\[4\]\.genblk1\.cell0_I
*2696 uo_out_obuf_I\[5\]\.genblk1\.cell0_I
*2697 uo_out_obuf_I\[6\]\.genblk1\.cell0_I
*2698 uo_out_obuf_I\[7\]\.genblk1\.cell0_I

*PORTS
ctrl_ena I
ctrl_sel_inc I
ctrl_sel_rst_n I
k_one O
k_zero O
pad_ui_in[0] I
pad_ui_in[1] I
pad_ui_in[2] I
pad_ui_in[3] I
pad_ui_in[4] I
pad_ui_in[5] I
pad_ui_in[6] I
pad_ui_in[7] I
pad_ui_in[8] I
pad_ui_in[9] I
pad_uio_in[0] I
pad_uio_in[1] I
pad_uio_in[2] I
pad_uio_in[3] I
pad_uio_in[4] I
pad_uio_in[5] I
pad_uio_in[6] I
pad_uio_in[7] I
pad_uio_oe_n[0] O
pad_uio_oe_n[1] O
pad_uio_oe_n[2] O
pad_uio_oe_n[3] O
pad_uio_oe_n[4] O
pad_uio_oe_n[5] O
pad_uio_oe_n[6] O
pad_uio_oe_n[7] O
pad_uio_out[0] O
pad_uio_out[1] O
pad_uio_out[2] O
pad_uio_out[3] O
pad_uio_out[4] O
pad_uio_out[5] O
pad_uio_out[6] O
pad_uio_out[7] O
pad_uo_out[0] O
pad_uo_out[1] O
pad_uo_out[2] O
pad_uo_out[3] O
pad_uo_out[4] O
pad_uo_out[5] O
pad_uo_out[6] O
pad_uo_out[7] O
spine_bot_iw[0] O
spine_bot_iw[10] O
spine_bot_iw[11] O
spine_bot_iw[12] O
spine_bot_iw[13] O
spine_bot_iw[14] O
spine_bot_iw[15] O
spine_bot_iw[16] O
spine_bot_iw[17] O
spine_bot_iw[18] O
spine_bot_iw[19] O
spine_bot_iw[1] O
spine_bot_iw[20] O
spine_bot_iw[21] O
spine_bot_iw[22] O
spine_bot_iw[23] O
spine_bot_iw[24] O
spine_bot_iw[25] O
spine_bot_iw[26] O
spine_bot_iw[27] O
spine_bot_iw[28] O
spine_bot_iw[29] O
spine_bot_iw[2] O
spine_bot_iw[3] O
spine_bot_iw[4] O
spine_bot_iw[5] O
spine_bot_iw[6] O
spine_bot_iw[7] O
spine_bot_iw[8] O
spine_bot_iw[9] O
spine_bot_ow[0] I
spine_bot_ow[10] I
spine_bot_ow[11] I
spine_bot_ow[12] I
spine_bot_ow[13] I
spine_bot_ow[14] I
spine_bot_ow[15] I
spine_bot_ow[16] I
spine_bot_ow[17] I
spine_bot_ow[18] I
spine_bot_ow[19] I
spine_bot_ow[1] I
spine_bot_ow[20] I
spine_bot_ow[21] I
spine_bot_ow[22] I
spine_bot_ow[23] I
spine_bot_ow[24] I
spine_bot_ow[25] I
spine_bot_ow[2] I
spine_bot_ow[3] I
spine_bot_ow[4] I
spine_bot_ow[5] I
spine_bot_ow[6] I
spine_bot_ow[7] I
spine_bot_ow[8] I
spine_bot_ow[9] I
spine_top_iw[0] O
spine_top_iw[10] O
spine_top_iw[11] O
spine_top_iw[12] O
spine_top_iw[13] O
spine_top_iw[14] O
spine_top_iw[15] O
spine_top_iw[16] O
spine_top_iw[17] O
spine_top_iw[18] O
spine_top_iw[19] O
spine_top_iw[1] O
spine_top_iw[20] O
spine_top_iw[21] O
spine_top_iw[22] O
spine_top_iw[23] O
spine_top_iw[24] O
spine_top_iw[25] O
spine_top_iw[26] O
spine_top_iw[27] O
spine_top_iw[28] O
spine_top_iw[29] O
spine_top_iw[2] O
spine_top_iw[3] O
spine_top_iw[4] O
spine_top_iw[5] O
spine_top_iw[6] O
spine_top_iw[7] O
spine_top_iw[8] O
spine_top_iw[9] O
spine_top_ow[0] I
spine_top_ow[10] I
spine_top_ow[11] I
spine_top_ow[12] I
spine_top_ow[13] I
spine_top_ow[14] I
spine_top_ow[15] I
spine_top_ow[16] I
spine_top_ow[17] I
spine_top_ow[18] I
spine_top_ow[19] I
spine_top_ow[1] I
spine_top_ow[20] I
spine_top_ow[21] I
spine_top_ow[22] I
spine_top_ow[23] I
spine_top_ow[24] I
spine_top_ow[25] I
spine_top_ow[2] I
spine_top_ow[3] I
spine_top_ow[4] I
spine_top_ow[5] I
spine_top_ow[6] I
spine_top_ow[7] I
spine_top_ow[8] I
spine_top_ow[9] I

*D_NET *3 0.0101326
*CONN
*P ctrl_ena I
*I *2365:A I *D sky130_fd_sc_hd__buf_2
*I *2362:DIODE I *D sky130_fd_sc_hd__diode_2
*CAP
1 ctrl_ena 0.000732346
2 *2365:A 0
3 *2362:DIODE 0
4 *3:26 0.00363187
5 *3:24 0.00410698
6 *3:13 0.00120746
7 *3:13 k_one 0
8 *3:13 pad_uo_out[7] 0.000281861
9 *3:13 *4:13 3.15154e-05
10 *3:13 *5:17 8.18539e-05
11 *3:13 *5:31 0
12 *3:13 *6:12 9.33529e-06
13 *3:13 *49:12 4.93791e-05
14 *3:24 *5:31 0
15 *3:24 *25:13 0
*RES
1 ctrl_ena *3:13 23.3492 
2 *3:13 *2362:DIODE 38 
3 *3:13 *3:24 24.3007 
4 *3:24 *3:26 60.175 
5 *3:26 *2365:A 23 
*END

*D_NET *4 0.0110347
*CONN
*P ctrl_sel_inc I
*I *2366:A I *D sky130_fd_sc_hd__buf_2
*I *2363:DIODE I *D sky130_fd_sc_hd__diode_2
*CAP
1 ctrl_sel_inc 0.00454836
2 *2366:A 0.00050047
3 *2363:DIODE 0
4 *4:13 0.00504883
5 *2366:A *5:35 0.000493526
6 *2366:A *98:24 0
7 *2366:A *191:10 0
8 *4:13 k_zero 9.59396e-05
9 *4:13 spine_bot_ow[15] 0
10 *4:13 spine_bot_ow[16] 0
11 *4:13 spine_bot_ow[22] 0
12 *4:13 spine_bot_ow[23] 0
13 *4:13 spine_bot_ow[4] 0
14 *4:13 spine_bot_ow[6] 0
15 *4:13 spine_bot_ow[8] 0
16 *4:13 *5:17 6.12567e-05
17 *4:13 *6:12 0
18 *4:13 *80:15 0.000240753
19 *4:13 *97:15 1.40476e-05
20 *3:13 *4:13 3.15154e-05
*RES
1 ctrl_sel_inc *4:13 35.4289 
2 *4:13 *2363:DIODE 38 
3 *4:13 *2366:A 48.4607 
*END

*D_NET *5 0.0132987
*CONN
*P ctrl_sel_rst_n I
*I *2367:A I *D sky130_fd_sc_hd__buf_2
*I *2364:DIODE I *D sky130_fd_sc_hd__diode_2
*CAP
1 ctrl_sel_rst_n 0.000592274
2 *2367:A 2.34823e-05
3 *2364:DIODE 0.000289893
4 *5:35 0.00402174
5 *5:33 0.00399826
6 *5:31 0.000289893
7 *5:17 0.000592274
8 *5:17 k_one 0.000176387
9 *5:17 *6:12 9.75158e-06
10 *5:17 *7:10 5.22448e-05
11 *5:35 *2371:A 0.000573195
12 *5:35 *2384:A 5.67058e-05
13 *5:35 *163:8 0.000235278
14 *5:35 *166:75 2.02872e-05
15 *5:35 *166:83 4.66047e-05
16 *5:35 *166:204 1.21972e-05
17 *5:35 *167:152 2.93747e-05
18 *5:35 *167:154 0.000144067
19 *5:35 *167:163 0.000649729
20 *5:35 *167:191 0.000139346
21 *5:35 *167:193 0.000355822
22 *5:35 *167:195 0.00035322
23 *2366:A *5:35 0.000493526
24 *3:13 *5:17 8.18539e-05
25 *3:13 *5:31 0
26 *3:24 *5:31 0
27 *4:13 *5:17 6.12567e-05
*RES
1 ctrl_sel_rst_n *5:17 36.4589 
2 *5:17 *2364:DIODE 23 
3 *2364:DIODE *5:31 43.4271 
4 *5:31 *5:33 15 
5 *5:33 *5:35 73.9914 
6 *5:35 *2367:A 23.4971 
*END

*D_NET *6 0.00141401
*CONN
*P k_one O
*I *2602:HI O *D sky130_fd_sc_hd__conb_1
*CAP
1 k_one 0.000481788
2 *2602:HI 9.92968e-05
3 *6:12 0.000581085
4 k_one k_zero 5.63648e-05
5 k_one pad_uo_out[7] 0
6 *3:13 k_one 0
7 *3:13 *6:12 9.33529e-06
8 *4:13 *6:12 0
9 *5:17 k_one 0.000176387
10 *5:17 *6:12 9.75158e-06
*RES
1 *2602:HI *6:12 46.5059 
2 *6:12 k_one 9.26747 
*END

*D_NET *7 0.0011654
*CONN
*P k_zero O
*I *2602:LO O *D sky130_fd_sc_hd__conb_1
*CAP
1 k_zero 0.000134048
2 *2602:LO 0.000346375
3 *7:10 0.000480423
4 k_one k_zero 5.63648e-05
5 *4:13 k_zero 9.59396e-05
6 *5:17 *7:10 5.22448e-05
*RES
1 *2602:LO *7:10 44.3489 
2 *7:10 k_zero 16.4368 
*END

*D_NET *8 0.0286595
*CONN
*P pad_ui_in[0] I
*I *2469:A I *D sky130_fd_sc_hd__and2_2
*I *2516:DIODE I *D sky130_fd_sc_hd__diode_2
*I *2421:A I *D sky130_fd_sc_hd__and2_2
*CAP
1 pad_ui_in[0] 0.000467298
2 *2469:A 0
3 *2516:DIODE 0
4 *2421:A 0
5 *8:41 0.00101107
6 *8:39 0.00164748
7 *8:21 0.00109284
8 *8:19 0.00134721
9 *8:15 0.00348548
10 *8:13 0.00433482
11 *8:13 *9:11 0.000426733
12 *8:13 *17:9 0.000783366
13 *8:13 *17:31 6.80247e-05
14 *8:13 *17:42 2.11157e-05
15 *8:13 *18:11 9.94802e-06
16 *8:15 *9:13 0
17 *8:15 *9:17 0
18 *8:15 *9:39 0
19 *8:15 *17:42 0.00563271
20 *8:15 *17:54 0.000343631
21 *8:15 *18:53 0
22 *8:21 *13:17 0.0021863
23 *8:21 *14:23 0.000306558
24 *8:21 *15:17 0.00244385
25 *8:21 *16:11 0.000103427
26 *8:41 *17:31 0.000120193
27 *8:41 *22:17 0.000445118
28 *8:41 *22:21 0.00116741
29 *8:41 *280:14 0.00121498
*RES
1 pad_ui_in[0] *8:13 18.968 
2 *8:13 *8:15 87.8286 
3 *8:15 *8:19 19.7229 
4 *8:19 *8:21 38.2593 
5 *8:21 *2421:A 23 
6 *8:15 *2516:DIODE 38 
7 *8:13 *8:39 25.1707 
8 *8:39 *8:41 30.16 
9 *8:41 *2469:A 23 
*END

*D_NET *9 0.0253994
*CONN
*P pad_ui_in[1] I
*I *2471:A I *D sky130_fd_sc_hd__and2_2
*I *2517:DIODE I *D sky130_fd_sc_hd__diode_2
*I *2423:A I *D sky130_fd_sc_hd__and2_2
*CAP
1 pad_ui_in[1] 0.000627143
2 *2471:A 0
3 *2517:DIODE 0
4 *2423:A 0
5 *9:47 0.00016438
6 *9:41 0.00150709
7 *9:39 0.00149156
8 *9:23 0.00193814
9 *9:17 0.00220727
10 *9:13 0.00395553
11 *9:11 0.0044624
12 *9:11 *18:11 0.000903382
13 *9:11 *19:9 0
14 *9:13 *18:13 0
15 *9:13 *18:25 0
16 *9:17 *18:25 0
17 *9:23 *19:44 0.000838996
18 *9:23 *22:36 0.00132118
19 *9:23 *173:118 0.000394982
20 *9:23 *175:10 6.17437e-06
21 *9:39 *18:13 0
22 *9:39 *18:53 0
23 *9:41 *20:43 0.00282168
24 *9:41 *256:18 0.000130187
25 *9:41 *279:10 0.000407759
26 *9:41 *281:14 0.00165368
27 *9:41 *282:10 0.000141154
28 *9:47 spine_top_iw[9] 0
29 *9:47 *107:8 0
30 *8:13 *9:11 0.000426733
31 *8:15 *9:13 0
32 *8:15 *9:17 0
33 *8:15 *9:39 0
*RES
1 pad_ui_in[1] *9:11 19.4944 
2 *9:11 *9:13 72.5104 
3 *9:13 *9:17 19.7229 
4 *9:17 *9:23 46.0479 
5 *9:23 *2423:A 23 
6 *9:13 *2517:DIODE 38 
7 *9:11 *9:39 17.4339 
8 *9:39 *9:41 44.4529 
9 *9:41 *9:47 32.2579 
10 *9:47 *2471:A 23 
*END

*D_NET *10 0.0191614
*CONN
*P pad_ui_in[2] I
*I *2473:A I *D sky130_fd_sc_hd__and2_2
*I *2518:DIODE I *D sky130_fd_sc_hd__diode_2
*I *2425:A I *D sky130_fd_sc_hd__and2_2
*CAP
1 pad_ui_in[2] 0.000491312
2 *2473:A 0
3 *2518:DIODE 0
4 *2425:A 0
5 *10:41 0.00169032
6 *10:39 0.00192359
7 *10:28 0.00329917
8 *10:26 0.00306589
9 *10:19 0.00137082
10 *10:17 0.00186213
11 *10:17 *11:11 0.000151538
12 *10:19 *2420:A 0.000755659
13 *10:19 *2425:B 0.000451686
14 *10:19 *176:10 5.70006e-05
15 *10:28 *11:19 0
16 *10:28 *11:34 0
17 *10:28 *21:13 0.00354311
18 *10:28 *21:48 0
19 *10:39 *21:13 0.000493756
20 *10:41 *206:10 5.37348e-06
*RES
1 pad_ui_in[2] *10:17 37.3142 
2 *10:17 *10:19 29.6836 
3 *10:19 *2425:A 23 
4 *10:17 *10:26 15 
5 *10:26 *10:28 72.3343 
6 *10:28 *2518:DIODE 38 
7 *10:28 *10:39 21.4836 
8 *10:39 *10:41 29.2071 
9 *10:41 *2473:A 23 
*END

*D_NET *11 0.0210189
*CONN
*P pad_ui_in[3] I
*I *2475:A I *D sky130_fd_sc_hd__and2_2
*I *2519:DIODE I *D sky130_fd_sc_hd__diode_2
*I *2427:A I *D sky130_fd_sc_hd__and2_2
*CAP
1 pad_ui_in[3] 0.000771364
2 *2475:A 0
3 *2519:DIODE 0
4 *2427:A 0.000700025
5 *11:55 0.000343653
6 *11:49 0.00275128
7 *11:36 0.00240763
8 *11:34 0.00275833
9 *11:19 0.00206585
10 *11:11 0.00489552
11 *2427:A *2534:CLK 3.22467e-05
12 *2427:A *2534:D 7.52677e-05
13 *2427:A *2534:RESET_B 4.65845e-05
14 *2427:A *12:19 6.65426e-05
15 *2427:A *173:161 4.07902e-05
16 *2427:A *177:10 0.00018701
17 *2427:A *224:8 0.000156211
18 *11:11 *12:11 0.000769239
19 *11:11 *14:23 8.83621e-05
20 *11:19 *2459:A 5.79559e-05
21 *11:19 *12:15 0
22 *11:19 *12:19 0.000559989
23 *11:19 *12:26 0
24 *11:19 *16:23 0.00021747
25 *11:19 *192:8 0.000570795
26 *11:19 *224:8 8.1796e-05
27 *11:34 *12:26 0
28 *11:34 *20:13 0
29 *11:34 *20:17 0
30 *11:34 *20:21 0
31 *11:34 *21:13 0.00122346
32 *11:55 *199:19 0
33 *10:17 *11:11 0.000151538
34 *10:28 *11:19 0
35 *10:28 *11:34 0
*RES
1 pad_ui_in[3] *11:11 19.3675 
2 *11:11 *11:19 44.4868 
3 *11:19 *2427:A 35.7186 
4 *11:11 *11:34 63.0025 
5 *11:34 *11:36 15 
6 *11:36 *2519:DIODE 23 
7 *11:36 *11:49 36.0636 
8 *11:49 *11:55 36.4836 
9 *11:55 *2475:A 23 
*END

*D_NET *12 0.0292577
*CONN
*P pad_ui_in[4] I
*I *2477:A I *D sky130_fd_sc_hd__and2_2
*I *2520:DIODE I *D sky130_fd_sc_hd__diode_2
*I *2429:A I *D sky130_fd_sc_hd__and2_2
*CAP
1 pad_ui_in[4] 0.000461798
2 *2477:A 0
3 *2520:DIODE 0
4 *2429:A 0
5 *12:41 0.00184264
6 *12:37 0.00197267
7 *12:26 0.00178154
8 *12:19 0.00285327
9 *12:15 0.00300882
10 *12:11 0.00226886
11 *12:11 *13:13 0.000876721
12 *12:11 *14:11 0.000140186
13 *12:11 *14:23 2.19162e-05
14 *12:15 *13:13 5.75458e-05
15 *12:15 *14:23 0
16 *12:15 *15:13 0
17 *12:19 *2459:A 1.83408e-05
18 *12:19 *2534:CLK 2.64616e-05
19 *12:19 *2534:D 0.000103574
20 *12:19 *16:23 0.00018066
21 *12:19 *173:161 0.000184704
22 *12:19 *224:8 0.000357957
23 *12:26 *13:13 2.05503e-05
24 *12:26 *13:30 0.00505303
25 *12:26 *20:13 0.00191838
26 *12:26 *20:17 0.00016367
27 *12:26 *20:21 8.62876e-05
28 *12:37 *13:30 0.000227497
29 *12:37 *13:47 0.000241616
30 *12:37 *20:13 0.000234371
31 *12:41 *16:49 0.00375887
32 *2427:A *12:19 6.65426e-05
33 *11:11 *12:11 0.000769239
34 *11:19 *12:15 0
35 *11:19 *12:19 0.000559989
36 *11:19 *12:26 0
37 *11:34 *12:26 0
*RES
1 pad_ui_in[4] *12:11 19.0688 
2 *12:11 *12:15 17.4339 
3 *12:15 *12:19 42.4436 
4 *12:19 *2429:A 23 
5 *12:11 *12:26 66.5239 
6 *12:26 *2520:DIODE 38 
7 *12:26 *12:37 21.1314 
8 *12:37 *12:41 41.615 
9 *12:41 *2477:A 23 
*END

*D_NET *13 0.0297857
*CONN
*P pad_ui_in[5] I
*I *2479:A I *D sky130_fd_sc_hd__and2_2
*I *2521:DIODE I *D sky130_fd_sc_hd__diode_2
*I *2431:A I *D sky130_fd_sc_hd__and2_2
*CAP
1 pad_ui_in[5] 0.000602621
2 *2479:A 0
3 *2521:DIODE 5.45426e-05
4 *2431:A 0
5 *13:57 0.00204172
6 *13:47 0.00251896
7 *13:30 0.00297717
8 *13:23 0.000216908
9 *13:17 0.00223357
10 *13:15 0.00201666
11 *13:13 0.00304801
12 *13:13 *14:11 0.000607109
13 *13:13 *14:23 0.000246564
14 *13:13 *15:13 0.000138256
15 *13:13 *16:23 6.1344e-06
16 *13:17 *2421:B 0.000397596
17 *13:17 *14:23 0.000466793
18 *13:17 *15:17 0.000831884
19 *13:23 *173:182 0
20 *13:23 *180:8 0
21 *13:30 *14:45 0
22 *13:47 *14:45 0
23 *13:47 *15:24 0
24 *13:47 *15:34 0
25 *13:47 *19:34 0
26 *13:47 *20:13 6.91528e-06
27 *13:57 *2479:B 9.47033e-05
28 *13:57 *258:6 0.0026163
29 *8:21 *13:17 0.0021863
30 *12:11 *13:13 0.000876721
31 *12:15 *13:13 5.75458e-05
32 *12:26 *13:13 2.05503e-05
33 *12:26 *13:30 0.00505303
34 *12:37 *13:30 0.000227497
35 *12:37 *13:47 0.000241616
*RES
1 pad_ui_in[5] *13:13 20.2248 
2 *13:13 *13:15 15 
3 *13:15 *13:17 44.9293 
4 *13:17 *13:23 33.3143 
5 *13:23 *2431:A 23 
6 *13:13 *13:30 69.165 
7 *13:30 *2521:DIODE 38.6214 
8 *13:30 *13:47 25.0671 
9 *13:47 *13:57 46.69 
10 *13:57 *2479:A 23 
*END

*D_NET *14 0.0317417
*CONN
*P pad_ui_in[6] I
*I *2522:DIODE I *D sky130_fd_sc_hd__diode_2
*I *2481:A I *D sky130_fd_sc_hd__and2_2
*I *2433:A I *D sky130_fd_sc_hd__and2_2
*CAP
1 pad_ui_in[6] 0.000617409
2 *2522:DIODE 0
3 *2481:A 3.56673e-05
4 *2433:A 1.40552e-05
5 *14:45 0.00255579
6 *14:34 0.00371466
7 *14:23 0.00693223
8 *14:11 0.00641239
9 *2433:A *62:8 2.46922e-05
10 *2433:A *173:182 1.05441e-05
11 *2481:A *2485:A 0.000228909
12 *2481:A *203:147 8.6949e-05
13 *2481:A *203:149 0.00014196
14 *14:11 *15:13 0.000473277
15 *14:11 *16:11 0.000157693
16 *14:23 spine_bot_iw[10] 4.8098e-05
17 *14:23 spine_bot_iw[9] 4.93791e-05
18 *14:23 *15:13 7.16228e-05
19 *14:23 *15:17 0.000265531
20 *14:23 *15:24 8.48811e-05
21 *14:23 *16:23 0.0015277
22 *14:23 *73:12 2.37336e-05
23 *14:23 *163:8 0.000114879
24 *14:34 *2540:RESET_B 0
25 *14:34 *17:54 0
26 *14:34 *18:25 1.27424e-05
27 *14:34 *19:50 0
28 *14:34 *62:8 0.000387909
29 *14:34 *64:10 0
30 *14:34 *183:8 0
31 *14:34 *184:10 0.000135547
32 *14:34 *185:8 0
33 *14:34 *231:21 0.000197479
34 *14:34 *232:21 0
35 *14:45 *15:24 0.00553847
36 *8:21 *14:23 0.000306558
37 *11:11 *14:23 8.83621e-05
38 *12:11 *14:11 0.000140186
39 *12:11 *14:23 2.19162e-05
40 *12:15 *14:23 0
41 *13:13 *14:11 0.000607109
42 *13:13 *14:23 0.000246564
43 *13:17 *14:23 0.000466793
44 *13:30 *14:45 0
45 *13:47 *14:45 0
*RES
1 pad_ui_in[6] *14:11 19.3675 
2 *14:11 *14:23 28.0392 
3 *14:23 *2433:A 38.3211 
4 *14:23 *14:34 72.8625 
5 *14:34 *2481:A 40.5271 
6 *14:11 *14:45 72.5104 
7 *14:45 *2522:DIODE 38 
*END

*D_NET *15 0.0299992
*CONN
*P pad_ui_in[7] I
*I *2523:DIODE I *D sky130_fd_sc_hd__diode_2
*I *2483:A I *D sky130_fd_sc_hd__and2_2
*I *2435:A I *D sky130_fd_sc_hd__and2_2
*CAP
1 pad_ui_in[7] 0.000662996
2 *2523:DIODE 0
3 *2483:A 0
4 *2435:A 0
5 *15:36 0.00317085
6 *15:34 0.0032614
7 *15:28 0.00019919
8 *15:24 0.00263849
9 *15:17 0.00191411
10 *15:15 0.00191411
11 *15:13 0.00319285
12 *15:13 *16:11 0.000570614
13 *15:13 *16:23 0.000340824
14 *15:17 *2421:B 0.000397596
15 *15:17 *2435:B 7.44257e-05
16 *15:17 *163:8 0.00122101
17 *15:24 *16:30 0
18 *15:24 *19:34 0
19 *15:24 *19:38 0.000115532
20 *15:24 *19:42 0.000161012
21 *15:28 *16:49 5.47927e-05
22 *15:34 *19:34 0.000167443
23 *15:36 *113:8 9.41704e-05
24 *8:21 *15:17 0.00244385
25 *12:15 *15:13 0
26 *13:13 *15:13 0.000138256
27 *13:17 *15:17 0.000831884
28 *13:47 *15:24 0
29 *13:47 *15:34 0
30 *14:11 *15:13 0.000473277
31 *14:23 *15:13 7.16228e-05
32 *14:23 *15:17 0.000265531
33 *14:23 *15:24 8.48811e-05
34 *14:45 *15:24 0.00553847
*RES
1 pad_ui_in[7] *15:13 20.847 
2 *15:13 *15:15 15 
3 *15:15 *15:17 53.505 
4 *15:17 *2435:A 23 
5 *15:13 *15:24 74.4471 
6 *15:24 *15:28 16.5743 
7 *15:28 *15:34 32.2579 
8 *15:34 *15:36 53.9814 
9 *15:36 *2483:A 23 
10 *15:28 *2523:DIODE 23 
*END

*D_NET *16 0.0306914
*CONN
*P pad_ui_in[8] I
*I *2485:A I *D sky130_fd_sc_hd__and2_2
*I *2524:DIODE I *D sky130_fd_sc_hd__diode_2
*I *2437:A I *D sky130_fd_sc_hd__and2_2
*CAP
1 pad_ui_in[8] 0.000706842
2 *2485:A 0.000463728
3 *2524:DIODE 0
4 *2437:A 0
5 *16:49 0.00238646
6 *16:41 0.00217818
7 *16:30 0.00320441
8 *16:23 0.0043723
9 *16:11 0.00802811
10 *2485:A *2477:B 2.18409e-05
11 *2485:A *2485:B 0.000143655
12 *2485:A *203:147 0.000222786
13 *2485:A *203:149 4.97808e-05
14 *16:23 spine_bot_iw[11] 0
15 *16:23 spine_bot_iw[12] 9.59396e-05
16 *16:23 spine_bot_iw[13] 0
17 *16:23 spine_bot_iw[20] 4.58213e-05
18 *16:23 spine_bot_iw[4] 0
19 *16:23 spine_bot_iw[6] 1.21654e-05
20 *16:23 spine_bot_iw[7] 0
21 *16:23 spine_bot_iw[8] 4.02281e-06
22 *16:23 *56:12 0.000127444
23 *16:23 *58:12 7.53758e-05
24 *16:23 *59:12 9.75158e-06
25 *16:23 *72:12 5.03787e-05
26 *16:23 *181:8 1.05658e-05
27 *16:30 *18:13 0
28 *16:30 *18:25 0
29 *16:30 *19:34 0.00116161
30 *16:30 *19:38 0
31 *16:30 *19:42 0
32 *16:41 *18:13 0
33 *16:41 *19:34 0.000167748
34 *16:49 *203:145 5.43894e-06
35 *2481:A *2485:A 0.000228909
36 *8:21 *16:11 0.000103427
37 *11:19 *16:23 0.00021747
38 *12:19 *16:23 0.00018066
39 *12:41 *16:49 0.00375887
40 *13:13 *16:23 6.1344e-06
41 *14:11 *16:11 0.000157693
42 *14:23 *16:23 0.0015277
43 *15:13 *16:11 0.000570614
44 *15:13 *16:23 0.000340824
45 *15:24 *16:30 0
46 *15:28 *16:49 5.47927e-05
*RES
1 pad_ui_in[8] *16:11 19.2405 
2 *16:11 *16:23 45.0725 
3 *16:23 *2437:A 23 
4 *16:11 *16:30 66.5239 
5 *16:30 *2524:DIODE 38 
6 *16:30 *16:41 21.4836 
7 *16:41 *16:49 49.7557 
8 *16:49 *2485:A 33.7921 
*END

*D_NET *17 0.0356476
*CONN
*P pad_ui_in[9] I
*I *2525:DIODE I *D sky130_fd_sc_hd__diode_2
*I *2439:A I *D sky130_fd_sc_hd__and2_2
*I *2487:A I *D sky130_fd_sc_hd__and2_2
*CAP
1 pad_ui_in[9] 0.000634731
2 *2525:DIODE 0
3 *2439:A 0
4 *2487:A 0
5 *17:54 0.00271847
6 *17:42 0.00532515
7 *17:40 0.00260669
8 *17:31 0.00264375
9 *17:9 0.00327848
10 *17:31 spine_top_iw[10] 5.22967e-05
11 *17:31 spine_top_iw[12] 0
12 *17:31 spine_top_iw[2] 2.50806e-05
13 *17:31 spine_top_iw[3] 2.64181e-05
14 *17:31 spine_top_iw[4] 5.10636e-05
15 *17:31 spine_top_iw[5] 2.64181e-05
16 *17:31 *2663:A 0
17 *17:31 *18:11 4.88215e-05
18 *17:31 *18:53 0.00438976
19 *17:31 *19:9 0
20 *17:31 *26:12 0
21 *17:31 *34:12 0.00012141
22 *17:31 *108:12 0.000220931
23 *17:31 *117:12 0
24 *17:31 *255:18 0.000271106
25 *17:31 *256:18 0.000420862
26 *17:31 *281:22 4.30908e-05
27 *17:42 *34:12 0
28 *17:54 *18:25 0.00542857
29 *17:54 *20:23 0.000345478
30 *8:13 *17:9 0.000783366
31 *8:13 *17:31 6.80247e-05
32 *8:13 *17:42 2.11157e-05
33 *8:15 *17:42 0.00563271
34 *8:15 *17:54 0.000343631
35 *8:41 *17:31 0.000120193
36 *14:34 *17:54 0
*RES
1 pad_ui_in[9] *17:9 10.7776 
2 *17:9 *17:31 36.0816 
3 *17:31 *2487:A 38 
4 *17:9 *17:40 8 
5 *17:40 *17:42 74.6232 
6 *17:42 *17:54 46.8289 
7 *17:54 *2439:A 23 
8 *17:42 *2525:DIODE 38 
*END

*D_NET *18 0.0353074
*CONN
*P pad_uio_in[0] I
*I *2489:A I *D sky130_fd_sc_hd__and2_2
*I *2526:DIODE I *D sky130_fd_sc_hd__diode_2
*I *2441:A I *D sky130_fd_sc_hd__and2_2
*CAP
1 pad_uio_in[0] 0.00068343
2 *2489:A 0
3 *2526:DIODE 0
4 *2441:A 0
5 *18:53 0.00319404
6 *18:25 0.00342031
7 *18:13 0.00701852
8 *18:11 0.00747568
9 *18:11 pad_uio_out[0] 0.000371295
10 *18:11 *19:9 0
11 *18:25 *19:44 0.00024526
12 *18:25 *21:58 0.000306627
13 *18:25 *22:36 0.000117156
14 *18:25 *173:107 0.000166768
15 *18:53 pad_uio_oe_n[2] 0.000171115
16 *18:53 spine_top_iw[13] 9.70492e-05
17 *18:53 *22:17 4.96824e-05
18 *18:53 *22:21 0.000103623
19 *18:53 *27:12 9.58483e-06
20 *18:53 *34:12 6.10551e-06
21 *18:53 *35:12 0
22 *18:53 *36:12 0
23 *18:53 *37:12 0
24 *18:53 *106:12 0
25 *18:53 *114:8 1.27424e-05
26 *18:53 *118:12 0
27 *18:53 *119:12 0
28 *18:53 *203:205 0.000106671
29 *18:53 *255:18 0
30 *18:53 *256:18 0.00095849
31 *18:53 *279:16 0
32 *8:13 *18:11 9.94802e-06
33 *8:15 *18:53 0
34 *9:11 *18:11 0.000903382
35 *9:13 *18:13 0
36 *9:13 *18:25 0
37 *9:17 *18:25 0
38 *9:39 *18:13 0
39 *9:39 *18:53 0
40 *14:34 *18:25 1.27424e-05
41 *16:30 *18:13 0
42 *16:30 *18:25 0
43 *16:41 *18:13 0
44 *17:31 *18:11 4.88215e-05
45 *17:31 *18:53 0.00438976
46 *17:54 *18:25 0.00542857
*RES
1 pad_uio_in[0] *18:11 19.3675 
2 *18:11 *18:13 70.3975 
3 *18:13 *18:25 47.1897 
4 *18:25 *2441:A 23 
5 *18:13 *2526:DIODE 38 
6 *18:11 *18:53 46.0331 
7 *18:53 *2489:A 23 
*END

*D_NET *19 0.0356012
*CONN
*P pad_uio_in[1] I
*I *2527:DIODE I *D sky130_fd_sc_hd__diode_2
*I *2443:A I *D sky130_fd_sc_hd__and2_2
*I *2491:A I *D sky130_fd_sc_hd__and2_2
*CAP
1 pad_uio_in[1] 0.000955212
2 *2527:DIODE 0
3 *2443:A 0
4 *2491:A 0
5 *19:50 0.000106134
6 *19:44 0.00359097
7 *19:42 0.00380438
8 *19:38 0.000502268
9 *19:34 0.00292885
10 *19:32 0.00274613
11 *19:25 0.00353639
12 *19:9 0.00449161
13 *19:9 pad_uio_oe_n[0] 0.000156688
14 *19:9 pad_uio_oe_n[1] 3.11976e-05
15 *19:9 pad_uio_out[0] 4.63038e-05
16 *19:9 pad_uio_out[1] 9.03476e-05
17 *19:9 *20:11 0
18 *19:9 *255:18 6.52316e-05
19 *19:25 spine_top_iw[14] 0.000466891
20 *19:25 spine_top_iw[15] 9.2568e-05
21 *19:25 spine_top_iw[16] 7.11795e-05
22 *19:25 spine_top_iw[18] 0.000269242
23 *19:25 spine_top_iw[19] 0
24 *19:25 spine_top_iw[6] 0.000144687
25 *19:25 *20:11 0.000524347
26 *19:25 *20:49 0
27 *19:25 *21:11 0.000277578
28 *19:25 *255:18 0.00394212
29 *19:25 *279:10 0.000340482
30 *19:44 *22:36 0.00353738
31 *19:50 *184:10 2.5415e-05
32 *19:50 *185:8 0
33 *9:11 *19:9 0
34 *9:23 *19:44 0.000838996
35 *13:47 *19:34 0
36 *14:34 *19:50 0
37 *15:24 *19:34 0
38 *15:24 *19:38 0.000115532
39 *15:24 *19:42 0.000161012
40 *15:34 *19:34 0.000167443
41 *16:30 *19:34 0.00116161
42 *16:30 *19:38 0
43 *16:30 *19:42 0
44 *16:41 *19:34 0.000167748
45 *17:31 *19:9 0
46 *18:11 *19:9 0
47 *18:25 *19:44 0.00024526
*RES
1 pad_uio_in[1] *19:9 11.4085 
2 *19:9 *19:25 37.2062 
3 *19:25 *2491:A 23 
4 *19:9 *19:32 8 
5 *19:32 *19:34 65.4779 
6 *19:34 *19:38 4.98179 
7 *19:38 *19:42 21.8357 
8 *19:42 *19:44 55.8871 
9 *19:44 *19:50 31.9057 
10 *19:50 *2443:A 23 
11 *19:38 *2527:DIODE 38 
*END

*D_NET *20 0.0330406
*CONN
*P pad_uio_in[2] I
*I *2493:A I *D sky130_fd_sc_hd__and2_2
*I *2528:DIODE I *D sky130_fd_sc_hd__diode_2
*I *2445:A I *D sky130_fd_sc_hd__and2_2
*CAP
1 pad_uio_in[2] 0.000732606
2 *2493:A 0
3 *2528:DIODE 0
4 *2445:A 3.16101e-05
5 *20:49 0.00011906
6 *20:43 0.00337503
7 *20:41 0.00338572
8 *20:23 0.00360727
9 *20:21 0.00363512
10 *20:17 0.000138884
11 *20:13 0.0030474
12 *20:11 0.00383034
13 *2445:A *2447:A 1.14154e-05
14 *2445:A *21:58 1.37232e-05
15 *20:11 pad_uio_oe_n[1] 0.000249875
16 *20:11 pad_uio_oe_n[2] 5.137e-05
17 *20:11 pad_uio_out[2] 9.03476e-05
18 *20:11 *21:11 0
19 *20:11 *255:18 0.000499655
20 *20:11 *279:10 0.000103427
21 *20:13 *21:13 0
22 *20:13 *28:8 0
23 *20:23 *2447:A 5.29672e-05
24 *20:23 *21:58 0.00281374
25 *20:41 *28:8 0
26 *20:43 *256:18 0.000112764
27 *20:43 *281:14 0.0010329
28 *20:49 *122:12 4.21594e-06
29 *9:41 *20:43 0.00282168
30 *11:34 *20:13 0
31 *11:34 *20:17 0
32 *11:34 *20:21 0
33 *12:26 *20:13 0.00191838
34 *12:26 *20:17 0.00016367
35 *12:26 *20:21 8.62876e-05
36 *12:37 *20:13 0.000234371
37 *13:47 *20:13 6.91528e-06
38 *17:54 *20:23 0.000345478
39 *19:9 *20:11 0
40 *19:25 *20:11 0.000524347
41 *19:25 *20:49 0
*RES
1 pad_uio_in[2] *20:11 19.3675 
2 *20:11 *20:13 71.2779 
3 *20:13 *20:17 2.70321 
4 *20:17 *20:21 16.2014 
5 *20:21 *20:23 54.9343 
6 *20:23 *2445:A 23.8493 
7 *20:17 *2528:DIODE 38 
8 *20:11 *20:41 17.0818 
9 *20:41 *20:43 51.5993 
10 *20:43 *20:49 31.9057 
11 *20:49 *2493:A 23 
*END

*D_NET *21 0.0295422
*CONN
*P pad_uio_in[3] I
*I *2447:A I *D sky130_fd_sc_hd__and2_2
*I *2495:A I *D sky130_fd_sc_hd__and2_2
*I *2529:DIODE I *D sky130_fd_sc_hd__diode_2
*CAP
1 pad_uio_in[3] 0.000895754
2 *2447:A 0.000139849
3 *2495:A 0
4 *2529:DIODE 0.000303075
5 *21:58 0.00153855
6 *21:50 0.00139871
7 *21:48 0.000131332
8 *21:34 0.000131257
9 *21:28 0.00413524
10 *21:26 0.00404176
11 *21:13 0.00240215
12 *21:11 0.00316393
13 *2447:A *173:66 0.000187129
14 *2447:A *173:70 0.000215765
15 *21:11 pad_uio_oe_n[2] 0.000339309
16 *21:11 pad_uio_out[3] 0.000183534
17 *21:13 pad_uio_oe_n[3] 0
18 *21:13 *28:8 1.53024e-05
19 *21:26 *28:8 1.10532e-05
20 *21:28 *2512:A 1.94812e-05
21 *21:28 *257:14 0.00033219
22 *21:34 *281:12 2.44117e-05
23 *21:58 *2443:B 0
24 *21:58 *173:70 7.06229e-05
25 *21:58 *173:79 0.000102301
26 *21:58 *173:88 0.00010776
27 *21:58 *173:107 0.000554584
28 *21:58 *227:14 0.000331397
29 *21:58 *227:26 2.93845e-05
30 *2445:A *2447:A 1.14154e-05
31 *2445:A *21:58 1.37232e-05
32 *10:28 *21:13 0.00354311
33 *10:28 *21:48 0
34 *10:39 *21:13 0.000493756
35 *11:34 *21:13 0.00122346
36 *18:25 *21:58 0.000306627
37 *19:25 *21:11 0.000277578
38 *20:11 *21:11 0
39 *20:13 *21:13 0
40 *20:23 *2447:A 5.29672e-05
41 *20:23 *21:58 0.00281374
*RES
1 pad_uio_in[3] *21:11 19.192 
2 *21:11 *21:13 70.0454 
3 *21:13 *2529:DIODE 40.0507 
4 *21:11 *21:26 15.6732 
5 *21:26 *21:28 51.5993 
6 *21:28 *21:34 31.9057 
7 *21:34 *2495:A 23 
8 *2529:DIODE *21:48 39.9057 
9 *21:48 *21:50 15 
10 *21:50 *21:58 48.8029 
11 *21:58 *2447:A 28.075 
*END

*D_NET *22 0.0286678
*CONN
*P pad_uio_in[4] I
*I *2530:DIODE I *D sky130_fd_sc_hd__diode_2
*I *2449:A I *D sky130_fd_sc_hd__and2_2
*I *2497:A I *D sky130_fd_sc_hd__and2_2
*CAP
1 pad_uio_in[4] 0.00103895
2 *2530:DIODE 0
3 *2449:A 0
4 *2497:A 0
5 *22:44 0.000190562
6 *22:36 0.00165128
7 *22:34 0.00189561
8 *22:30 0.00434192
9 *22:28 0.00390702
10 *22:21 0.00214621
11 *22:17 0.00318516
12 *22:17 pad_uio_oe_n[3] 0.000174921
13 *22:17 pad_uio_out[3] 5.60203e-06
14 *22:17 pad_uio_out[4] 5.83617e-05
15 *22:17 spine_top_iw[0] 0
16 *22:21 *203:82 0.000375837
17 *22:21 *203:91 0.000165772
18 *22:21 *203:102 0.000159721
19 *22:21 *203:109 0.000231441
20 *22:21 *203:192 0.00030596
21 *22:21 *203:205 0.000644847
22 *22:21 *203:212 0.000536777
23 *22:21 *280:14 2.75849e-05
24 *22:30 pad_uio_oe_n[3] 0
25 *22:30 *258:12 0
26 *22:30 *281:22 0
27 *22:30 *282:16 7.60439e-05
28 *22:36 *63:14 5.12254e-05
29 *22:36 *173:107 9.84851e-05
30 *22:36 *173:118 0.000479329
31 *22:44 *2539:RESET_B 0
32 *22:44 *173:59 0.000141954
33 *22:44 *186:10 0
34 *22:44 *187:10 3.56433e-05
35 *8:41 *22:17 0.000445118
36 *8:41 *22:21 0.00116741
37 *9:23 *22:36 0.00132118
38 *18:25 *22:36 0.000117156
39 *18:53 *22:17 4.96824e-05
40 *18:53 *22:21 0.000103623
41 *19:44 *22:36 0.00353738
*RES
1 pad_uio_in[4] *22:17 39.2592 
2 *22:17 *22:21 47.3321 
3 *22:21 *2497:A 23 
4 *22:17 *22:28 15 
5 *22:28 *22:30 73.7429 
6 *22:30 *22:34 22.1879 
7 *22:34 *22:36 47.7879 
8 *22:36 *22:44 33.8321 
9 *22:44 *2449:A 23 
10 *22:30 *2530:DIODE 38 
*END

*D_NET *23 0.033297
*CONN
*P pad_uio_in[5] I
*I *2499:A I *D sky130_fd_sc_hd__and2_2
*I *2451:A I *D sky130_fd_sc_hd__and2_2
*I *2531:DIODE I *D sky130_fd_sc_hd__diode_2
*CAP
1 pad_uio_in[5] 0.000783575
2 *2499:A 0
3 *2451:A 0
4 *2531:DIODE 0
5 *23:63 0.00169376
6 *23:55 0.00194328
7 *23:49 0.00188879
8 *23:36 0.000266131
9 *23:26 0.00210952
10 *23:19 0.0018704
11 *23:15 0.00333134
12 *23:13 0.00572717
13 *23:13 pad_uio_oe_n[4] 0.000337926
14 *23:13 pad_uio_out[5] 0.000335321
15 *23:13 *151:17 0.000411634
16 *23:13 *238:113 3.96156e-05
17 *23:13 *244:8 0.00010579
18 *23:13 *250:12 0
19 *23:15 spine_top_ow[24] 0
20 *23:15 *2616:A 0.000119818
21 *23:15 *96:8 0.0024136
22 *23:15 *151:17 0.000166513
23 *23:15 *152:20 0
24 *23:15 *238:154 0
25 *23:15 *244:8 8.85189e-05
26 *23:15 *245:8 4.334e-05
27 *23:15 *249:10 0
28 *23:15 *250:12 0
29 *23:15 *252:8 0.000191112
30 *23:15 *276:16 0
31 *23:15 *308:10 0.000130705
32 *23:19 *24:64 3.22879e-05
33 *23:26 *2690:A1 2.32004e-05
34 *23:26 *2690:S 0.00176795
35 *23:26 *24:64 0.00113625
36 *23:26 *25:52 1.03955e-05
37 *23:26 *25:56 0.0014592
38 *23:36 *25:56 1.12349e-05
39 *23:36 *173:18 8.68883e-05
40 *23:36 *191:10 4.96303e-05
41 *23:49 *2638:A 0.000143655
42 *23:49 *238:74 0.000460117
43 *23:49 *238:76 0.000241539
44 *23:49 *238:78 0.000454079
45 *23:49 *238:91 3.83498e-05
46 *23:49 *238:100 1.21972e-05
47 *23:49 *276:16 0.000400412
48 *23:49 *304:22 0.00053323
49 *23:55 *2636:A 0
50 *23:55 *2638:A 0
51 *23:55 *139:8 4.21594e-06
52 *23:55 *265:8 4.334e-05
53 *23:55 *272:10 3.41998e-06
54 *23:55 *292:10 0
55 *23:63 *24:48 0.00215047
56 *23:63 *203:38 2.1014e-05
57 *23:63 *203:45 0.000106277
58 *23:63 *220:10 0.000102389
59 *23:63 *280:6 7.43025e-06
*RES
1 pad_uio_in[5] *23:13 23.8693 
2 *23:13 *23:15 83.6029 
3 *23:15 *23:19 15.6214 
4 *23:19 *2531:DIODE 23 
5 *23:19 *23:26 53.0286 
6 *23:26 *23:36 35.1579 
7 *23:36 *2451:A 23 
8 *23:13 *23:49 45.2014 
9 *23:49 *23:55 34.0186 
10 *23:55 *23:63 28.4407 
11 *23:63 *2499:A 23 
*END

*D_NET *24 0.0314049
*CONN
*P pad_uio_in[6] I
*I *2453:A I *D sky130_fd_sc_hd__and2_2
*I *2501:A I *D sky130_fd_sc_hd__and2_2
*I *2532:DIODE I *D sky130_fd_sc_hd__diode_2
*CAP
1 pad_uio_in[6] 0.000884649
2 *2453:A 0
3 *2501:A 0
4 *2532:DIODE 0
5 *24:68 0.00159604
6 *24:64 0.00235198
7 *24:58 0.000755939
8 *24:48 0.00118186
9 *24:36 0.00130627
10 *24:30 0.00142063
11 *24:15 0.00433112
12 *24:13 0.00651199
13 *24:13 pad_uio_oe_n[5] 5.83617e-05
14 *24:13 pad_uio_out[5] 0.000107356
15 *24:13 pad_uio_out[6] 6.35013e-05
16 *24:13 *250:12 0
17 *24:13 *260:10 0
18 *24:13 *286:14 0
19 *24:15 pad_uio_out[5] 0.0005284
20 *24:15 *250:12 0
21 *24:15 *251:12 0
22 *24:15 *286:14 0
23 *24:30 *2401:A 0.000102052
24 *24:30 *2401:TE_B 2.61526e-05
25 *24:30 *2624:A1 9.62666e-05
26 *24:30 *170:76 4.17736e-05
27 *24:30 *170:78 0.000212162
28 *24:30 *170:82 0.000486465
29 *24:30 *171:51 0.000111911
30 *24:30 *304:36 0.000343273
31 *24:36 *146:19 0
32 *24:36 *254:8 0
33 *24:48 *2397:A 0.000362942
34 *24:48 *2637:A 7.73389e-05
35 *24:48 *2649:A 0.000222697
36 *24:48 *2650:A 5.41385e-05
37 *24:48 *140:8 9.84794e-05
38 *24:48 *144:22 9.84851e-05
39 *24:48 *170:70 0.000403247
40 *24:48 *170:72 4.5051e-05
41 *24:48 *171:106 0.000530627
42 *24:48 *270:14 5.75997e-05
43 *24:48 *280:6 0.000278754
44 *24:64 *25:52 0.00259137
45 *24:64 *84:22 7.91493e-05
46 *24:64 *85:22 0
47 *24:68 *2360:A 0.000102389
48 *24:68 *2368:A 0.000101764
49 *24:68 *104:28 0.000269775
50 *24:68 *166:10 9.62764e-05
51 *24:68 *300:10 9.76261e-05
52 *23:19 *24:64 3.22879e-05
53 *23:26 *24:64 0.00113625
54 *23:63 *24:48 0.00215047
*RES
1 pad_uio_in[6] *24:13 25.5441 
2 *24:13 *24:15 86.42 
3 *24:15 *2532:DIODE 38 
4 *24:13 *24:30 37.1021 
5 *24:30 *24:36 31.5536 
6 *24:36 *24:48 40.745 
7 *24:48 *2501:A 23 
8 *2532:DIODE *24:58 23 
9 *24:58 *24:64 45.9886 
10 *24:64 *24:68 44.2071 
11 *24:68 *2453:A 23 
*END

*D_NET *25 0.0345387
*CONN
*P pad_uio_in[7] I
*I *2455:A I *D sky130_fd_sc_hd__and2_2
*I *2503:A I *D sky130_fd_sc_hd__and2_2
*I *2533:DIODE I *D sky130_fd_sc_hd__diode_2
*CAP
1 pad_uio_in[7] 0.00124551
2 *2455:A 0
3 *2503:A 0
4 *2533:DIODE 0
5 *25:56 0.0014527
6 *25:52 0.00369475
7 *25:48 0.00224205
8 *25:38 0.000518108
9 *25:34 0.00280577
10 *25:28 0.00321932
11 *25:13 0.00427382
12 *25:11 0.006451
13 *25:11 pad_uio_oe_n[6] 5.83617e-05
14 *25:11 pad_uio_oe_n[7] 6.48412e-05
15 *25:11 pad_uio_out[6] 5.60203e-06
16 *25:11 pad_uio_out[7] 2.63759e-05
17 *25:11 pad_uo_out[1] 0
18 *25:13 pad_uio_out[5] 0
19 *25:34 *2408:TE_B 0.000119331
20 *25:34 *2689:A1 4.37586e-06
21 *25:34 *170:88 7.15126e-05
22 *25:34 *238:45 2.45549e-06
23 *25:34 *272:10 3.73876e-05
24 *25:34 *283:10 9.67842e-05
25 *25:34 *292:10 0.000155451
26 *25:34 *299:14 1.05235e-05
27 *25:34 *309:6 0.000511248
28 *25:38 *2503:B 5.56356e-05
29 *25:38 *2653:A1 4.45437e-05
30 *25:38 *238:51 0.000221992
31 *25:38 *238:267 0.000311787
32 *25:38 *238:275 5.56356e-05
33 *25:38 *255:18 0.000112764
34 *25:38 *271:14 2.32101e-05
35 *25:38 *279:8 0.000400883
36 *25:38 *281:6 0.000160426
37 *25:38 *282:8 0.00199822
38 *25:38 *304:22 1.40958e-05
39 *3:24 *25:13 0
40 *23:26 *25:52 1.03955e-05
41 *23:26 *25:56 0.0014592
42 *23:36 *25:56 1.12349e-05
43 *24:64 *25:52 0.00259137
*RES
1 pad_uio_in[7] *25:11 19.5355 
2 *25:11 *25:13 81.3139 
3 *25:13 *2533:DIODE 38 
4 *25:11 *25:28 28.8268 
5 *25:28 *25:34 47.4179 
6 *25:34 *25:38 38.0136 
7 *25:38 *2503:A 23 
8 *2533:DIODE *25:48 23 
9 *25:48 *25:52 35.4214 
10 *25:52 *25:56 29.7043 
11 *25:56 *2455:A 23 
*END

*D_NET *26 0.000881261
*CONN
*P pad_uio_oe_n[0] O
*I *2627:Y O *D sky130_fd_sc_hd__bufinv_8
*CAP
1 pad_uio_oe_n[0] 6.52964e-05
2 *2627:Y 0.000221216
3 *26:12 0.000286512
4 pad_uio_oe_n[0] pad_uio_out[0] 0.000151549
5 *26:12 *34:12 0
6 *17:31 *26:12 0
7 *19:9 pad_uio_oe_n[0] 0.000156688
*RES
1 *2627:Y *26:12 48.9709 
2 *26:12 pad_uio_oe_n[0] 8.6328 
*END

*D_NET *27 0.000874521
*CONN
*P pad_uio_oe_n[1] O
*I *2628:Y O *D sky130_fd_sc_hd__bufinv_8
*CAP
1 pad_uio_oe_n[1] 0.000168985
2 *2628:Y 7.54758e-05
3 *27:12 0.00024446
4 pad_uio_oe_n[1] pad_uio_out[1] 9.03476e-05
5 *27:12 *35:12 4.59554e-06
6 *18:53 *27:12 9.58483e-06
7 *19:9 pad_uio_oe_n[1] 3.11976e-05
8 *20:11 pad_uio_oe_n[1] 0.000249875
*RES
1 *2628:Y *27:12 46.7721 
2 *27:12 pad_uio_oe_n[1] 9.0136 
*END

*D_NET *28 0.0026015
*CONN
*P pad_uio_oe_n[2] O
*I *2629:Y O *D sky130_fd_sc_hd__bufinv_8
*CAP
1 pad_uio_oe_n[2] 0.000446773
2 *2629:Y 0.000472895
3 *28:8 0.000919668
4 pad_uio_oe_n[2] pad_uio_out[2] 9.03476e-05
5 pad_uio_oe_n[2] *36:12 0
6 *28:8 pad_uio_oe_n[3] 0
7 *28:8 *256:18 8.36704e-05
8 *28:8 *280:20 0
9 *18:53 pad_uio_oe_n[2] 0.000171115
10 *20:11 pad_uio_oe_n[2] 5.137e-05
11 *20:13 *28:8 0
12 *20:41 *28:8 0
13 *21:11 pad_uio_oe_n[2] 0.000339309
14 *21:13 *28:8 1.53024e-05
15 *21:26 *28:8 1.10532e-05
*RES
1 *2629:Y *28:8 45.7161 
2 *28:8 pad_uio_oe_n[2] 18.0085 
*END

*D_NET *29 0.00301258
*CONN
*P pad_uio_oe_n[3] O
*I *2630:Y O *D sky130_fd_sc_hd__bufinv_8
*CAP
1 pad_uio_oe_n[3] 0.00138965
2 *2630:Y 0
3 *29:6 0.00138965
4 pad_uio_oe_n[3] pad_uio_out[3] 5.83617e-05
5 pad_uio_oe_n[3] *37:12 0
6 pad_uio_oe_n[3] *38:8 0
7 pad_uio_oe_n[3] *256:18 0
8 pad_uio_oe_n[3] *282:16 0
9 *21:13 pad_uio_oe_n[3] 0
10 *22:17 pad_uio_oe_n[3] 0.000174921
11 *22:30 pad_uio_oe_n[3] 0
12 *28:8 pad_uio_oe_n[3] 0
*RES
1 *2630:Y *29:6 38 
2 *29:6 pad_uio_oe_n[3] 36.0312 
*END

*D_NET *30 0.00376882
*CONN
*P pad_uio_oe_n[4] O
*I *2631:Y O *D sky130_fd_sc_hd__bufinv_8
*CAP
1 pad_uio_oe_n[4] 0.00113899
2 *2631:Y 0
3 *30:6 0.00113899
4 pad_uio_oe_n[4] pad_uio_out[5] 5.134e-05
5 pad_uio_oe_n[4] spine_top_ow[24] 0
6 pad_uio_oe_n[4] *153:15 0
7 pad_uio_oe_n[4] *250:12 0.000488549
8 pad_uio_oe_n[4] *251:12 0.000366265
9 pad_uio_oe_n[4] *262:8 0.000246748
10 *23:13 pad_uio_oe_n[4] 0.000337926
*RES
1 *2631:Y *30:6 38 
2 *30:6 pad_uio_oe_n[4] 31.507 
*END

*D_NET *31 0.00177059
*CONN
*P pad_uio_oe_n[5] O
*I *2632:Y O *D sky130_fd_sc_hd__bufinv_8
*CAP
1 pad_uio_oe_n[5] 0.000296862
2 *2632:Y 0.00042203
3 *31:12 0.000718892
4 pad_uio_oe_n[5] pad_uio_out[5] 0.000268201
5 pad_uio_oe_n[5] pad_uio_out[6] 6.23785e-06
6 *31:12 *286:14 0
7 *24:13 pad_uio_oe_n[5] 5.83617e-05
*RES
1 *2632:Y *31:12 47.2015 
2 *31:12 pad_uio_oe_n[5] 9.14053 
*END

*D_NET *32 0.00148819
*CONN
*P pad_uio_oe_n[6] O
*I *2633:Y O *D sky130_fd_sc_hd__bufinv_8
*CAP
1 pad_uio_oe_n[6] 0.000236573
2 *2633:Y 0.00044916
3 *32:8 0.000685732
4 pad_uio_oe_n[6] pad_uio_out[6] 5.83617e-05
5 *32:8 pad_uio_oe_n[7] 0
6 *32:8 pad_uo_out[0] 0
7 *32:8 *40:12 0
8 *32:8 *41:8 0
9 *25:11 pad_uio_oe_n[6] 5.83617e-05
*RES
1 *2633:Y *32:8 46.0682 
2 *32:8 pad_uio_oe_n[6] 16.6944 
*END

*D_NET *33 0.00310248
*CONN
*P pad_uio_oe_n[7] O
*I *2634:Y O *D sky130_fd_sc_hd__bufinv_8
*CAP
1 pad_uio_oe_n[7] 0.000852006
2 *2634:Y 0
3 *33:6 0.000852006
4 pad_uio_oe_n[7] pad_uio_out[7] 3.15154e-05
5 pad_uio_oe_n[7] pad_uo_out[0] 0.00129544
6 pad_uio_oe_n[7] pad_uo_out[1] 6.67581e-06
7 *25:11 pad_uio_oe_n[7] 6.48412e-05
8 *32:8 pad_uio_oe_n[7] 0
*RES
1 *2634:Y *33:6 38 
2 *33:6 pad_uio_oe_n[7] 30.4915 
*END

*D_NET *34 0.00142918
*CONN
*P pad_uio_out[0] O
*I *2659:Y O *D sky130_fd_sc_hd__bufinv_8
*CAP
1 pad_uio_out[0] 0.000233319
2 *2659:Y 0.000132937
3 *34:12 0.000366256
4 pad_uio_oe_n[0] pad_uio_out[0] 0.000151549
5 *17:31 *34:12 0.00012141
6 *17:42 *34:12 0
7 *18:11 pad_uio_out[0] 0.000371295
8 *18:53 *34:12 6.10551e-06
9 *19:9 pad_uio_out[0] 4.63038e-05
10 *26:12 *34:12 0
*RES
1 *2659:Y *34:12 47.3819 
2 *34:12 pad_uio_out[0] 9.52133 
*END

*D_NET *35 0.000845165
*CONN
*P pad_uio_out[1] O
*I *2660:Y O *D sky130_fd_sc_hd__bufinv_8
*CAP
1 pad_uio_out[1] 5.06759e-05
2 *2660:Y 0.000279261
3 *35:12 0.000329937
4 pad_uio_oe_n[1] pad_uio_out[1] 9.03476e-05
5 *18:53 *35:12 0
6 *19:9 pad_uio_out[1] 9.03476e-05
7 *27:12 *35:12 4.59554e-06
*RES
1 *2660:Y *35:12 48.172 
2 *35:12 pad_uio_out[1] 8.37893 
*END

*D_NET *36 0.00103598
*CONN
*P pad_uio_out[2] O
*I *2661:Y O *D sky130_fd_sc_hd__bufinv_8
*CAP
1 pad_uio_out[2] 5.06759e-05
2 *2661:Y 0.000376967
3 *36:12 0.000427643
4 pad_uio_oe_n[2] pad_uio_out[2] 9.03476e-05
5 pad_uio_oe_n[2] *36:12 0
6 *18:53 *36:12 0
7 *20:11 pad_uio_out[2] 9.03476e-05
*RES
1 *2661:Y *36:12 48.4296 
2 *36:12 pad_uio_out[2] 8.37893 
*END

*D_NET *37 0.000969554
*CONN
*P pad_uio_out[3] O
*I *2662:Y O *D sky130_fd_sc_hd__bufinv_8
*CAP
1 pad_uio_out[3] 0.000149408
2 *2662:Y 0.00021162
3 *37:12 0.000361028
4 *37:12 *280:20 0
5 pad_uio_oe_n[3] pad_uio_out[3] 5.83617e-05
6 pad_uio_oe_n[3] *37:12 0
7 *18:53 *37:12 0
8 *21:11 pad_uio_out[3] 0.000183534
9 *22:17 pad_uio_out[3] 5.60203e-06
*RES
1 *2662:Y *37:12 48.3525 
2 *37:12 pad_uio_out[3] 8.75973 
*END

*D_NET *38 0.00107375
*CONN
*P pad_uio_out[4] O
*I *2663:Y O *D sky130_fd_sc_hd__bufinv_8
*CAP
1 pad_uio_out[4] 0.000233291
2 *2663:Y 0.000274403
3 *38:8 0.000507694
4 pad_uio_out[4] spine_top_iw[0] 0
5 *38:8 *281:22 0
6 pad_uio_oe_n[3] *38:8 0
7 *22:17 pad_uio_out[4] 5.83617e-05
*RES
1 *2663:Y *38:8 42.8989 
2 *38:8 pad_uio_out[4] 16.6944 
*END

*D_NET *39 0.00393215
*CONN
*P pad_uio_out[5] O
*I *2664:Y O *D sky130_fd_sc_hd__bufinv_8
*CAP
1 pad_uio_out[5] 0.00132077
2 *2664:Y 0
3 *39:6 0.00132077
4 pad_uio_oe_n[4] pad_uio_out[5] 5.134e-05
5 pad_uio_oe_n[5] pad_uio_out[5] 0.000268201
6 *23:13 pad_uio_out[5] 0.000335321
7 *24:13 pad_uio_out[5] 0.000107356
8 *24:15 pad_uio_out[5] 0.0005284
9 *25:13 pad_uio_out[5] 0
*RES
1 *2664:Y *39:6 38 
2 *39:6 pad_uio_out[5] 32.8173 
*END

*D_NET *40 0.000870263
*CONN
*P pad_uio_out[6] O
*I *2665:Y O *D sky130_fd_sc_hd__bufinv_8
*CAP
1 pad_uio_out[6] 0.00020123
2 *2665:Y 0.00016705
3 *40:12 0.00036828
4 pad_uio_oe_n[5] pad_uio_out[6] 6.23785e-06
5 pad_uio_oe_n[6] pad_uio_out[6] 5.83617e-05
6 *24:13 pad_uio_out[6] 6.35013e-05
7 *25:11 pad_uio_out[6] 5.60203e-06
8 *32:8 *40:12 0
*RES
1 *2665:Y *40:12 46.5917 
2 *40:12 pad_uio_out[6] 8.6328 
*END

*D_NET *41 0.000978423
*CONN
*P pad_uio_out[7] O
*I *2666:Y O *D sky130_fd_sc_hd__bufinv_8
*CAP
1 pad_uio_out[7] 0.000126664
2 *2666:Y 0.000333602
3 *41:8 0.000460266
4 pad_uio_oe_n[7] pad_uio_out[7] 3.15154e-05
5 *25:11 pad_uio_out[7] 2.63759e-05
6 *32:8 *41:8 0
*RES
1 *2666:Y *41:8 44.3075 
2 *41:8 pad_uio_out[7] 16.3957 
*END

*D_NET *42 0.00385944
*CONN
*P pad_uo_out[0] O
*I *2691:Y O *D sky130_fd_sc_hd__bufinv_8
*CAP
1 pad_uo_out[0] 0.00112508
2 *2691:Y 0
3 *42:6 0.00112508
4 pad_uo_out[0] pad_uo_out[1] 0.000313846
5 pad_uio_oe_n[7] pad_uo_out[0] 0.00129544
6 *32:8 pad_uo_out[0] 0
*RES
1 *2691:Y *42:6 38 
2 *42:6 pad_uo_out[0] 36.8749 
*END

*D_NET *43 0.00131034
*CONN
*P pad_uo_out[1] O
*I *2692:Y O *D sky130_fd_sc_hd__bufinv_8
*CAP
1 pad_uo_out[1] 0.000223095
2 *2692:Y 9.68014e-05
3 *43:12 0.000319897
4 pad_uo_out[1] pad_uo_out[2] 0.000340693
5 pad_uo_out[1] pad_uo_out[4] 0
6 *43:12 *44:8 9.33529e-06
7 pad_uio_oe_n[7] pad_uo_out[1] 6.67581e-06
8 pad_uo_out[0] pad_uo_out[1] 0.000313846
9 *25:11 pad_uo_out[1] 0
*RES
1 *2692:Y *43:12 46.5059 
2 *43:12 pad_uo_out[1] 9.64827 
*END

*D_NET *44 0.00217925
*CONN
*P pad_uo_out[2] O
*I *2693:Y O *D sky130_fd_sc_hd__bufinv_8
*CAP
1 pad_uo_out[2] 0.000199937
2 *2693:Y 0.00054433
3 *44:8 0.000744267
4 pad_uo_out[2] pad_uo_out[3] 0.000340693
5 *44:8 pad_uo_out[3] 0
6 pad_uo_out[1] pad_uo_out[2] 0.000340693
7 *43:12 *44:8 9.33529e-06
*RES
1 *2693:Y *44:8 48.5332 
2 *44:8 pad_uo_out[2] 17.4933 
*END

*D_NET *45 0.00242664
*CONN
*P pad_uo_out[3] O
*I *2694:Y O *D sky130_fd_sc_hd__bufinv_8
*CAP
1 pad_uo_out[3] 0.000871052
2 *2694:Y 0
3 *45:6 0.000871052
4 pad_uo_out[3] pad_uo_out[4] 0.000343841
5 pad_uo_out[2] pad_uo_out[3] 0.000340693
6 *44:8 pad_uo_out[3] 0
*RES
1 *2694:Y *45:6 38 
2 *45:6 pad_uo_out[3] 30.4915 
*END

*D_NET *46 0.00322954
*CONN
*P pad_uo_out[4] O
*I *2695:Y O *D sky130_fd_sc_hd__bufinv_8
*CAP
1 pad_uo_out[4] 0.0010475
2 *2695:Y 0
3 *46:6 0.0010475
4 pad_uo_out[4] pad_uo_out[5] 0.000594186
5 pad_uo_out[4] *47:10 0.000196506
6 pad_uo_out[1] pad_uo_out[4] 0
7 pad_uo_out[3] pad_uo_out[4] 0.000343841
*RES
1 *2695:Y *46:6 38 
2 *46:6 pad_uo_out[4] 31.507 
*END

*D_NET *47 0.00299537
*CONN
*P pad_uo_out[5] O
*I *2696:Y O *D sky130_fd_sc_hd__bufinv_8
*CAP
1 pad_uo_out[5] 0.000595116
2 *2696:Y 0.00043145
3 *47:10 0.00102657
4 pad_uo_out[5] pad_uo_out[6] 0.000151549
5 pad_uo_out[4] pad_uo_out[5] 0.000594186
6 pad_uo_out[4] *47:10 0.000196506
*RES
1 *2696:Y *47:10 47.2904 
2 *47:10 pad_uo_out[5] 18.8896 
*END

*D_NET *48 0.00124528
*CONN
*P pad_uo_out[6] O
*I *2697:Y O *D sky130_fd_sc_hd__bufinv_8
*CAP
1 pad_uo_out[6] 0.000183266
2 *2697:Y 0.000363598
3 *48:10 0.000546864
4 pad_uo_out[5] pad_uo_out[6] 0.000151549
*RES
1 *2697:Y *48:10 44.2661 
2 *48:10 pad_uo_out[6] 16.7317 
*END

*D_NET *49 0.00132838
*CONN
*P pad_uo_out[7] O
*I *2698:Y O *D sky130_fd_sc_hd__bufinv_8
*CAP
1 pad_uo_out[7] 0.000242378
2 *2698:Y 0.000256191
3 *49:12 0.00049857
4 k_one pad_uo_out[7] 0
5 *3:13 pad_uo_out[7] 0.000281861
6 *3:13 *49:12 4.93791e-05
*RES
1 *2698:Y *49:12 48.5242 
2 *49:12 pad_uo_out[7] 9.26747 
*END

*D_NET *50 0.000770916
*CONN
*P spine_bot_iw[0] O
*I *2466:LO O *D sky130_fd_sc_hd__conb_1
*CAP
1 spine_bot_iw[0] 0.000118466
2 *2466:LO 0.000231398
3 *50:12 0.000349864
4 spine_bot_iw[0] spine_bot_iw[1] 5.83512e-05
5 spine_bot_iw[0] spine_bot_iw[2] 1.28353e-05
6 *50:12 *61:12 0
*RES
1 *2466:LO *50:12 49.2371 
2 *50:12 spine_bot_iw[0] 8.50587 
*END

*D_NET *51 0.00578241
*CONN
*P spine_bot_iw[10] O
*I *2465:X O *D sky130_fd_sc_hd__buf_8
*CAP
1 spine_bot_iw[10] 0.00162096
2 *2465:X 0
3 *51:6 0.00162096
4 spine_bot_iw[10] spine_bot_iw[11] 0.00012094
5 spine_bot_iw[10] spine_bot_iw[12] 5.52258e-05
6 spine_bot_iw[10] spine_bot_iw[9] 0.000562679
7 spine_bot_iw[10] *2462:A 0.00057082
8 spine_bot_iw[10] *2463:A 0.00020394
9 spine_bot_iw[10] *2538:RESET_B 0
10 spine_bot_iw[10] *53:8 0
11 spine_bot_iw[10] *173:107 3.88504e-05
12 spine_bot_iw[10] *175:10 0.000351608
13 spine_bot_iw[10] *197:21 0.000270722
14 spine_bot_iw[10] *224:21 0.000127606
15 spine_bot_iw[10] *225:16 0
16 spine_bot_iw[10] *226:14 0
17 spine_bot_iw[10] *227:26 0.000190003
18 *14:23 spine_bot_iw[10] 4.8098e-05
*RES
1 *2465:X *51:6 38 
2 *51:6 spine_bot_iw[10] 45.5927 
*END

*D_NET *52 0.0030155
*CONN
*P spine_bot_iw[11] O
*I *2422:X O *D sky130_fd_sc_hd__buf_8
*CAP
1 spine_bot_iw[11] 0.00110038
2 *2422:X 0.000224818
3 *52:10 0.0013252
4 spine_bot_iw[11] spine_bot_iw[12] 0.000124702
5 spine_bot_iw[11] spine_bot_iw[13] 4.74508e-05
6 spine_bot_iw[11] spine_bot_iw[6] 1.10588e-05
7 spine_bot_iw[11] spine_bot_iw[7] 3.36339e-05
8 spine_bot_iw[11] spine_bot_iw[8] 3.95857e-06
9 *52:10 spine_bot_iw[6] 2.33476e-05
10 *52:10 *74:8 0
11 *52:10 *173:124 0
12 spine_bot_iw[10] spine_bot_iw[11] 0.00012094
13 *16:23 spine_bot_iw[11] 0
*RES
1 *2422:X *52:10 49.8425 
2 *52:10 spine_bot_iw[11] 10.4939 
*END

*D_NET *53 0.00252567
*CONN
*P spine_bot_iw[12] O
*I *2424:X O *D sky130_fd_sc_hd__buf_8
*CAP
1 spine_bot_iw[12] 0.000494396
2 *2424:X 0.000478025
3 *53:8 0.000972421
4 spine_bot_iw[12] spine_bot_iw[13] 0.000144402
5 spine_bot_iw[12] spine_bot_iw[15] 0
6 *53:8 *2534:CLK 0.000160554
7 *53:8 *173:146 0
8 *53:8 *224:21 0
9 spine_bot_iw[10] spine_bot_iw[12] 5.52258e-05
10 spine_bot_iw[10] *53:8 0
11 spine_bot_iw[11] spine_bot_iw[12] 0.000124702
12 *16:23 spine_bot_iw[12] 9.59396e-05
*RES
1 *2424:X *53:8 46.7725 
2 *53:8 spine_bot_iw[12] 17.8331 
*END

*D_NET *54 0.00161441
*CONN
*P spine_bot_iw[13] O
*I *2426:X O *D sky130_fd_sc_hd__buf_8
*CAP
1 spine_bot_iw[13] 0.000413002
2 *2426:X 0.000124706
3 *54:10 0.000537708
4 spine_bot_iw[13] spine_bot_iw[14] 5.83512e-05
5 spine_bot_iw[13] spine_bot_iw[15] 1.9713e-05
6 spine_bot_iw[13] *55:12 1.36826e-06
7 spine_bot_iw[13] *56:12 1.39557e-05
8 *54:10 *176:10 0
9 *54:10 *177:10 0.000253754
10 spine_bot_iw[11] spine_bot_iw[13] 4.74508e-05
11 spine_bot_iw[12] spine_bot_iw[13] 0.000144402
12 *16:23 spine_bot_iw[13] 0
*RES
1 *2426:X *54:10 49.4904 
2 *54:10 spine_bot_iw[13] 9.41867 
*END

*D_NET *55 0.000713233
*CONN
*P spine_bot_iw[14] O
*I *2428:X O *D sky130_fd_sc_hd__buf_8
*CAP
1 spine_bot_iw[14] 3.0442e-05
2 *2428:X 0.000264564
3 *55:12 0.000295006
4 spine_bot_iw[14] spine_bot_iw[15] 6.35013e-05
5 *55:12 *56:12 0
6 spine_bot_iw[13] spine_bot_iw[14] 5.83512e-05
7 spine_bot_iw[13] *55:12 1.36826e-06
*RES
1 *2428:X *55:12 48.4383 
2 *55:12 spine_bot_iw[14] 8.252 
*END

*D_NET *56 0.00145578
*CONN
*P spine_bot_iw[15] O
*I *2430:X O *D sky130_fd_sc_hd__buf_8
*CAP
1 spine_bot_iw[15] 0.000293302
2 *2430:X 0.000267335
3 *56:12 0.000560637
4 spine_bot_iw[15] spine_bot_iw[16] 5.83512e-05
5 spine_bot_iw[15] spine_bot_iw[17] 5.15418e-05
6 spine_bot_iw[12] spine_bot_iw[15] 0
7 spine_bot_iw[13] spine_bot_iw[15] 1.9713e-05
8 spine_bot_iw[13] *56:12 1.39557e-05
9 spine_bot_iw[14] spine_bot_iw[15] 6.35013e-05
10 *16:23 *56:12 0.000127444
11 *55:12 *56:12 0
*RES
1 *2430:X *56:12 47.1928 
2 *56:12 spine_bot_iw[15] 9.26747 
*END

*D_NET *57 0.000596011
*CONN
*P spine_bot_iw[16] O
*I *2432:X O *D sky130_fd_sc_hd__buf_8
*CAP
1 spine_bot_iw[16] 3.0442e-05
2 *2432:X 0.000206637
3 *57:12 0.000237079
4 spine_bot_iw[16] spine_bot_iw[17] 6.35013e-05
5 *57:12 *179:8 0
6 spine_bot_iw[15] spine_bot_iw[16] 5.83512e-05
*RES
1 *2432:X *57:12 48.885 
2 *57:12 spine_bot_iw[16] 8.252 
*END

*D_NET *58 0.00124021
*CONN
*P spine_bot_iw[17] O
*I *2434:X O *D sky130_fd_sc_hd__buf_8
*CAP
1 spine_bot_iw[17] 0.000191869
2 *2434:X 0.000175624
3 *58:12 0.000367492
4 spine_bot_iw[17] spine_bot_iw[18] 0.000308696
5 *58:12 *178:10 6.10551e-06
6 spine_bot_iw[15] spine_bot_iw[17] 5.15418e-05
7 spine_bot_iw[16] spine_bot_iw[17] 6.35013e-05
8 *16:23 *58:12 7.53758e-05
*RES
1 *2434:X *58:12 46.8493 
2 *58:12 spine_bot_iw[17] 9.26747 
*END

*D_NET *59 0.00133262
*CONN
*P spine_bot_iw[18] O
*I *2436:X O *D sky130_fd_sc_hd__buf_8
*CAP
1 spine_bot_iw[18] 0.000206765
2 *2436:X 0.000108885
3 *59:12 0.00031565
4 spine_bot_iw[18] spine_bot_iw[19] 0.000151538
5 spine_bot_iw[18] spine_bot_iw[20] 2.4951e-05
6 spine_bot_iw[18] spine_bot_iw[21] 0
7 *59:12 *62:8 5.10117e-05
8 *59:12 *180:8 0.000155375
9 spine_bot_iw[17] spine_bot_iw[18] 0.000308696
10 *16:23 *59:12 9.75158e-06
*RES
1 *2436:X *59:12 48.1807 
2 *59:12 spine_bot_iw[18] 9.26747 
*END

*D_NET *60 0.000894504
*CONN
*P spine_bot_iw[19] O
*I *2438:X O *D sky130_fd_sc_hd__buf_8
*CAP
1 spine_bot_iw[19] 6.53167e-05
2 *2438:X 0.000211272
3 *60:12 0.000276589
4 spine_bot_iw[19] spine_bot_iw[20] 0.000156688
5 *60:12 spine_bot_iw[20] 9.75158e-06
6 *60:12 *62:8 2.33476e-05
7 *60:12 *179:8 0
8 spine_bot_iw[18] spine_bot_iw[19] 0.000151538
*RES
1 *2438:X *60:12 49.2371 
2 *60:12 spine_bot_iw[19] 8.6328 
*END

*D_NET *61 0.000542242
*CONN
*P spine_bot_iw[1] O
*I *2420:X O *D sky130_fd_sc_hd__buf_8
*CAP
1 spine_bot_iw[1] 3.0442e-05
2 *2420:X 0.000179753
3 *61:12 0.000210195
4 spine_bot_iw[1] spine_bot_iw[2] 6.35013e-05
5 spine_bot_iw[0] spine_bot_iw[1] 5.83512e-05
6 *50:12 *61:12 0
*RES
1 *2420:X *61:12 48.1807 
2 *61:12 spine_bot_iw[1] 8.252 
*END

*D_NET *62 0.00272128
*CONN
*P spine_bot_iw[20] O
*I *2440:X O *D sky130_fd_sc_hd__buf_8
*CAP
1 spine_bot_iw[20] 0.00030545
2 *2440:X 0.000492886
3 *62:8 0.000798336
4 spine_bot_iw[20] spine_bot_iw[21] 0.000281861
5 *62:8 *64:10 6.10551e-06
6 *62:8 *173:182 0.00011247
7 *62:8 *179:8 0
8 *62:8 *180:8 0
9 *62:8 *181:8 0
10 *62:8 *182:10 0
11 spine_bot_iw[18] spine_bot_iw[20] 2.4951e-05
12 spine_bot_iw[19] spine_bot_iw[20] 0.000156688
13 *2433:A *62:8 2.46922e-05
14 *14:34 *62:8 0.000387909
15 *16:23 spine_bot_iw[20] 4.58213e-05
16 *59:12 *62:8 5.10117e-05
17 *60:12 spine_bot_iw[20] 9.75158e-06
18 *60:12 *62:8 2.33476e-05
*RES
1 *2440:X *62:8 49.5896 
2 *62:8 spine_bot_iw[20] 17.6688 
*END

*D_NET *63 0.00308855
*CONN
*P spine_bot_iw[21] O
*I *2442:X O *D sky130_fd_sc_hd__buf_8
*CAP
1 spine_bot_iw[21] 0.000730302
2 *2442:X 0.000212036
3 *63:14 0.000942337
4 spine_bot_iw[21] spine_bot_iw[22] 0.000776018
5 spine_bot_iw[21] spine_bot_iw[24] 0
6 *63:14 spine_bot_iw[22] 6.07327e-06
7 *63:14 *185:8 8.87001e-05
8 *63:14 *186:10 0
9 spine_bot_iw[18] spine_bot_iw[21] 0
10 spine_bot_iw[20] spine_bot_iw[21] 0.000281861
11 *22:36 *63:14 5.12254e-05
*RES
1 *2442:X *63:14 49.6307 
2 *63:14 spine_bot_iw[21] 11.8061 
*END

*D_NET *64 0.00306187
*CONN
*P spine_bot_iw[22] O
*I *2444:X O *D sky130_fd_sc_hd__buf_8
*CAP
1 spine_bot_iw[22] 0.00070645
2 *2444:X 0.000177232
3 *64:10 0.000883683
4 spine_bot_iw[22] spine_bot_iw[23] 0.000433869
5 spine_bot_iw[22] spine_bot_iw[24] 7.24352e-05
6 *64:10 *185:8 0
7 spine_bot_iw[21] spine_bot_iw[22] 0.000776018
8 *14:34 *64:10 0
9 *62:8 *64:10 6.10551e-06
10 *63:14 spine_bot_iw[22] 6.07327e-06
*RES
1 *2444:X *64:10 49.4904 
2 *64:10 spine_bot_iw[22] 12.1291 
*END

*D_NET *65 0.00269189
*CONN
*P spine_bot_iw[23] O
*I *2446:X O *D sky130_fd_sc_hd__buf_8
*CAP
1 spine_bot_iw[23] 0.000255273
2 *2446:X 0.00063461
3 *65:10 0.000889883
4 spine_bot_iw[23] spine_bot_iw[24] 0.000439019
5 *65:10 *2539:RESET_B 0
6 *65:10 *67:8 0
7 *65:10 *185:8 0
8 *65:10 *186:10 3.92407e-05
9 spine_bot_iw[22] spine_bot_iw[23] 0.000433869
*RES
1 *2446:X *65:10 49.8589 
2 *65:10 spine_bot_iw[23] 17.96 
*END

*D_NET *66 0.00296446
*CONN
*P spine_bot_iw[24] O
*I *2448:X O *D sky130_fd_sc_hd__buf_8
*CAP
1 spine_bot_iw[24] 0.000666693
2 *2448:X 0.000187796
3 *66:12 0.000854489
4 spine_bot_iw[24] spine_bot_iw[25] 0.000744032
5 *66:12 *2539:RESET_B 0
6 *66:12 *186:10 0
7 spine_bot_iw[21] spine_bot_iw[24] 0
8 spine_bot_iw[22] spine_bot_iw[24] 7.24352e-05
9 spine_bot_iw[23] spine_bot_iw[24] 0.000439019
*RES
1 *2448:X *66:12 48.5329 
2 *66:12 spine_bot_iw[24] 11.8061 
*END

*D_NET *67 0.00282376
*CONN
*P spine_bot_iw[25] O
*I *2450:X O *D sky130_fd_sc_hd__buf_8
*CAP
1 spine_bot_iw[25] 0.00058384
2 *2450:X 0.000139607
3 *67:8 0.000723446
4 spine_bot_iw[25] spine_bot_iw[26] 0.000308696
5 *67:8 *2539:RESET_B 0.000324139
6 *67:8 *186:10 0
7 spine_bot_iw[24] spine_bot_iw[25] 0.000744032
8 *65:10 *67:8 0
*RES
1 *2450:X *67:8 42.1946 
2 *67:8 spine_bot_iw[25] 19.1435 
*END

*D_NET *68 0.00132159
*CONN
*P spine_bot_iw[26] O
*I *2452:X O *D sky130_fd_sc_hd__buf_8
*CAP
1 spine_bot_iw[26] 0.000130785
2 *2452:X 0.000221311
3 *68:12 0.000352097
4 spine_bot_iw[26] spine_bot_iw[27] 0.000308696
5 *68:12 *69:8 0
6 spine_bot_iw[25] spine_bot_iw[26] 0.000308696
*RES
1 *2452:X *68:12 48.9709 
2 *68:12 spine_bot_iw[26] 9.26747 
*END

*D_NET *69 0.00163324
*CONN
*P spine_bot_iw[27] O
*I *2454:X O *D sky130_fd_sc_hd__buf_8
*CAP
1 spine_bot_iw[27] 0.000203033
2 *2454:X 0.000248077
3 *69:8 0.000451111
4 spine_bot_iw[27] spine_bot_iw[28] 0.000308696
5 *69:8 *70:12 0
6 *69:8 *189:10 0.000113624
7 spine_bot_iw[26] spine_bot_iw[27] 0.000308696
8 *68:12 *69:8 0
*RES
1 *2454:X *69:8 43.2511 
2 *69:8 spine_bot_iw[27] 17.4523 
*END

*D_NET *70 0.00130309
*CONN
*P spine_bot_iw[28] O
*I *2456:X O *D sky130_fd_sc_hd__buf_8
*CAP
1 spine_bot_iw[28] 0.000199825
2 *2456:X 0.000236903
3 *70:12 0.000436728
4 spine_bot_iw[28] spine_bot_iw[29] 0.00012094
5 spine_bot_iw[27] spine_bot_iw[28] 0.000308696
6 *69:8 *70:12 0
*RES
1 *2456:X *70:12 48.4383 
2 *70:12 spine_bot_iw[28] 9.26747 
*END

*D_NET *71 0.000783816
*CONN
*P spine_bot_iw[29] O
*I *2467:LO O *D sky130_fd_sc_hd__conb_1
*CAP
1 spine_bot_iw[29] 0.000113665
2 *2467:LO 0.000217773
3 *71:12 0.000331438
4 spine_bot_iw[29] *80:15 0
5 spine_bot_iw[28] spine_bot_iw[29] 0.00012094
*RES
1 *2467:LO *71:12 49.2371 
2 *71:12 spine_bot_iw[29] 8.50587 
*END

*D_NET *72 0.00119572
*CONN
*P spine_bot_iw[2] O
*I *2457:X O *D sky130_fd_sc_hd__buf_8
*CAP
1 spine_bot_iw[2] 0.000239703
2 *2457:X 0.000138568
3 *72:12 0.000378271
4 spine_bot_iw[2] spine_bot_iw[3] 0.000312463
5 *72:12 *2457:A 0
6 spine_bot_iw[0] spine_bot_iw[2] 1.28353e-05
7 spine_bot_iw[1] spine_bot_iw[2] 6.35013e-05
8 *16:23 *72:12 5.03787e-05
*RES
1 *2457:X *72:12 46.6776 
2 *72:12 spine_bot_iw[2] 9.26747 
*END

*D_NET *73 0.0019388
*CONN
*P spine_bot_iw[3] O
*I *2458:X O *D sky130_fd_sc_hd__buf_8
*CAP
1 spine_bot_iw[3] 0.000551208
2 *2458:X 8.7638e-05
3 *73:12 0.000638846
4 spine_bot_iw[3] spine_bot_iw[4] 0.000182141
5 spine_bot_iw[3] spine_bot_iw[5] 8.5761e-05
6 *73:12 *192:19 5.70112e-05
7 spine_bot_iw[2] spine_bot_iw[3] 0.000312463
8 *14:23 *73:12 2.37336e-05
*RES
1 *2458:X *73:12 47.4764 
2 *73:12 spine_bot_iw[3] 10.5368 
*END

*D_NET *74 0.00147896
*CONN
*P spine_bot_iw[4] O
*I *2459:X O *D sky130_fd_sc_hd__buf_8
*CAP
1 spine_bot_iw[4] 0.000170895
2 *2459:X 0.000274749
3 *74:8 0.000445644
4 spine_bot_iw[4] spine_bot_iw[5] 0.000185903
5 *74:8 spine_bot_iw[6] 0
6 *74:8 *2457:A 0.000141869
7 *74:8 *2459:A 0
8 *74:8 *192:19 7.77603e-05
9 spine_bot_iw[3] spine_bot_iw[4] 0.000182141
10 *16:23 spine_bot_iw[4] 0
11 *52:10 *74:8 0
*RES
1 *2459:X *74:8 43.6032 
2 *74:8 spine_bot_iw[4] 16.9445 
*END

*D_NET *75 0.00326614
*CONN
*P spine_bot_iw[5] O
*I *2460:X O *D sky130_fd_sc_hd__buf_8
*CAP
1 spine_bot_iw[5] 0.00110168
2 *2460:X 0.000172567
3 *75:12 0.00127425
4 spine_bot_iw[5] spine_bot_iw[6] 0.000268191
5 spine_bot_iw[5] spine_bot_iw[9] 0
6 *75:12 *193:12 0
7 *75:12 *194:19 0.000177778
8 spine_bot_iw[3] spine_bot_iw[5] 8.5761e-05
9 spine_bot_iw[4] spine_bot_iw[5] 0.000185903
*RES
1 *2460:X *75:12 48.5329 
2 *75:12 spine_bot_iw[5] 11.8061 
*END

*D_NET *76 0.00425711
*CONN
*P spine_bot_iw[6] O
*I *2461:X O *D sky130_fd_sc_hd__buf_8
*CAP
1 spine_bot_iw[6] 0.00122336
2 *2461:X 0
3 *76:6 0.00122336
4 spine_bot_iw[6] spine_bot_iw[7] 0.000237592
5 spine_bot_iw[6] spine_bot_iw[8] 5.23796e-06
6 spine_bot_iw[6] *2459:A 0.000391033
7 spine_bot_iw[6] *2460:A 6.58373e-05
8 spine_bot_iw[6] *2534:RESET_B 0
9 spine_bot_iw[6] *164:91 0
10 spine_bot_iw[6] *164:93 0
11 spine_bot_iw[6] *173:124 0
12 spine_bot_iw[6] *174:8 0.000346308
13 spine_bot_iw[6] *194:19 0.00032581
14 spine_bot_iw[6] *195:17 0.000123815
15 spine_bot_iw[11] spine_bot_iw[6] 1.10588e-05
16 spine_bot_iw[5] spine_bot_iw[6] 0.000268191
17 *16:23 spine_bot_iw[6] 1.21654e-05
18 *52:10 spine_bot_iw[6] 2.33476e-05
19 *74:8 spine_bot_iw[6] 0
*RES
1 *2461:X *76:6 38 
2 *76:6 spine_bot_iw[6] 40.1835 
*END

*D_NET *77 0.00559259
*CONN
*P spine_bot_iw[7] O
*I *2462:X O *D sky130_fd_sc_hd__buf_8
*CAP
1 spine_bot_iw[7] 0.000928351
2 *2462:X 0
3 *77:6 0.000928351
4 spine_bot_iw[7] spine_bot_iw[8] 0.00193356
5 spine_bot_iw[7] *164:89 9.69381e-05
6 spine_bot_iw[7] *164:91 7.93302e-05
7 spine_bot_iw[7] *173:118 0.00084654
8 spine_bot_iw[7] *173:120 0.000353907
9 spine_bot_iw[7] *173:124 0.000154382
10 spine_bot_iw[7] *176:10 0
11 spine_bot_iw[11] spine_bot_iw[7] 3.36339e-05
12 spine_bot_iw[6] spine_bot_iw[7] 0.000237592
13 *16:23 spine_bot_iw[7] 0
*RES
1 *2462:X *77:6 38 
2 *77:6 spine_bot_iw[7] 40.9326 
*END

*D_NET *78 0.00528387
*CONN
*P spine_bot_iw[8] O
*I *2463:X O *D sky130_fd_sc_hd__buf_8
*CAP
1 spine_bot_iw[8] 0.00123842
2 *2463:X 0
3 *78:6 0.00123842
4 spine_bot_iw[8] spine_bot_iw[9] 0.000787847
5 spine_bot_iw[8] *164:89 7.23925e-05
6 spine_bot_iw[8] *176:10 0
7 spine_bot_iw[8] *196:19 0
8 spine_bot_iw[8] *224:21 0
9 spine_bot_iw[11] spine_bot_iw[8] 3.95857e-06
10 spine_bot_iw[6] spine_bot_iw[8] 5.23796e-06
11 spine_bot_iw[7] spine_bot_iw[8] 0.00193356
12 *16:23 spine_bot_iw[8] 4.02281e-06
*RES
1 *2463:X *78:6 38 
2 *78:6 spine_bot_iw[8] 45.732 
*END

*D_NET *79 0.00519963
*CONN
*P spine_bot_iw[9] O
*I *2464:X O *D sky130_fd_sc_hd__buf_8
*CAP
1 spine_bot_iw[9] 0.00168031
2 *2464:X 0
3 *79:6 0.00168031
4 spine_bot_iw[9] *2462:A 0
5 spine_bot_iw[9] *175:10 0
6 spine_bot_iw[9] *196:19 0
7 spine_bot_iw[9] *197:21 0
8 spine_bot_iw[9] *224:21 0
9 spine_bot_iw[9] *225:16 0.000439095
10 spine_bot_iw[10] spine_bot_iw[9] 0.000562679
11 spine_bot_iw[5] spine_bot_iw[9] 0
12 spine_bot_iw[8] spine_bot_iw[9] 0.000787847
13 *14:23 spine_bot_iw[9] 4.93791e-05
*RES
1 *2464:X *79:6 38 
2 *79:6 spine_bot_iw[9] 43.1277 
*END

*D_NET *80 0.000944196
*CONN
*P spine_bot_ow[0] I
*I *2550:DIODE I *D sky130_fd_sc_hd__diode_2
*CAP
1 spine_bot_ow[0] 0.000292939
2 *2550:DIODE 0
3 *80:15 0.000292939
4 *80:15 spine_bot_ow[1] 0.000117566
5 spine_bot_iw[29] *80:15 0
6 *4:13 *80:15 0.000240753
*RES
1 spine_bot_ow[0] *80:15 34.743 
2 *80:15 *2550:DIODE 23 
*END

*D_NET *81 0.0103853
*CONN
*P spine_bot_ow[10] I
*I *2642:A I *D sky130_fd_sc_hd__inv_2
*I *2551:DIODE I *D sky130_fd_sc_hd__diode_2
*I *2392:Z O *D sky130_fd_sc_hd__ebufn_1
*CAP
1 spine_bot_ow[10] 0.000449861
2 *2642:A 0
3 *2551:DIODE 0.000138189
4 *2392:Z 0
5 *81:39 0.000635256
6 *81:22 0.00405364
7 *81:6 0.00373006
8 spine_bot_ow[10] spine_bot_ow[11] 0.000423966
9 spine_bot_ow[10] spine_bot_ow[7] 0
10 spine_bot_ow[10] spine_bot_ow[9] 0.000274112
11 spine_bot_ow[10] *104:28 2.36993e-05
12 *81:22 *2673:A 0
13 *81:22 *82:24 0
14 *81:22 *82:44 3.83778e-05
15 *81:22 *103:22 0
16 *81:22 *104:28 0.000170909
17 *81:22 *160:10 0
18 *81:22 *293:8 0
19 *81:39 *2597:DIODE 2.93845e-05
20 *81:39 *2678:A 9.84794e-05
21 *81:39 *2679:A 5.50049e-05
22 *81:39 *82:44 0.000144168
23 *81:39 *160:10 0
24 *81:39 *270:8 2.30292e-05
25 *81:39 *271:14 4.58924e-05
26 *81:39 *299:8 5.12328e-05
*RES
1 *2392:Z *81:6 38 
2 *81:6 spine_bot_ow[10] 18.7191 
3 *81:6 *81:22 63.1786 
4 *81:22 *2551:DIODE 39.5743 
5 *81:22 *81:39 28.7957 
6 *81:39 *2642:A 23 
*END

*D_NET *82 0.0125289
*CONN
*P spine_bot_ow[11] I
*I *2643:A I *D sky130_fd_sc_hd__inv_2
*I *2552:DIODE I *D sky130_fd_sc_hd__diode_2
*I *2370:Z O *D sky130_fd_sc_hd__ebufn_1
*CAP
1 spine_bot_ow[11] 0.00037357
2 *2643:A 0
3 *2552:DIODE 0.000457384
4 *2370:Z 4.25104e-05
5 *82:44 0.000324255
6 *82:24 0.00168294
7 *82:8 0.00196589
8 spine_bot_ow[11] spine_bot_ow[12] 0.000429887
9 spine_bot_ow[11] *310:8 0
10 *82:8 *167:94 5.50049e-05
11 *82:24 *2673:A 0.000146634
12 *82:24 *83:12 5.58873e-06
13 *82:24 *83:29 0.00444304
14 *82:24 *160:10 0.00172998
15 *82:24 *293:8 0.000148412
16 *82:24 *310:8 0
17 *82:44 *2679:A 9.43301e-05
18 *82:44 *103:22 2.29192e-05
19 spine_bot_ow[10] spine_bot_ow[11] 0.000423966
20 *81:22 *82:24 0
21 *81:22 *82:44 3.83778e-05
22 *81:39 *82:44 0.000144168
*RES
1 *2370:Z *82:8 38.6214 
2 *82:8 spine_bot_ow[11] 18.5473 
3 *82:8 *82:24 61.0657 
4 *82:24 *2552:DIODE 40.0507 
5 *2552:DIODE *82:44 44.7736 
6 *82:44 *2643:A 38 
*END

*D_NET *83 0.0114129
*CONN
*P spine_bot_ow[12] I
*I *2644:A I *D sky130_fd_sc_hd__inv_2
*I *2553:DIODE I *D sky130_fd_sc_hd__diode_2
*I *2371:Z O *D sky130_fd_sc_hd__ebufn_1
*CAP
1 spine_bot_ow[12] 0.000287995
2 *2644:A 0.000374076
3 *2553:DIODE 0
4 *2371:Z 8.68015e-05
5 *83:29 0.00249273
6 *83:27 0.00211866
7 *83:12 0.000374797
8 spine_bot_ow[12] spine_bot_ow[13] 0.000423962
9 spine_bot_ow[12] spine_bot_ow[7] 0
10 *2644:A *2645:A 0
11 *2644:A *84:22 0
12 *2644:A *160:10 0.000182203
13 *83:12 *310:8 0
14 *83:29 *84:22 0
15 *83:29 *160:10 5.44006e-05
16 *83:29 *300:10 0.000138727
17 *83:29 *310:8 0
18 spine_bot_ow[11] spine_bot_ow[12] 0.000429887
19 *82:24 *83:12 5.58873e-06
20 *82:24 *83:29 0.00444304
*RES
1 *2371:Z *83:12 46.42 
2 *83:12 spine_bot_ow[12] 10.0291 
3 *2371:Z *83:27 38 
4 *83:27 *83:29 60.3614 
5 *83:29 *2553:DIODE 38 
6 *83:29 *2644:A 46.41 
*END

*D_NET *84 0.00977087
*CONN
*P spine_bot_ow[13] I
*I *2645:A I *D sky130_fd_sc_hd__inv_2
*I *2554:DIODE I *D sky130_fd_sc_hd__diode_2
*I *2372:Z O *D sky130_fd_sc_hd__ebufn_1
*CAP
1 spine_bot_ow[13] 0.000372821
2 *2645:A 0.000473339
3 *2554:DIODE 9.01176e-05
4 *2372:Z 0
5 *84:22 0.00390931
6 *84:6 0.00371868
7 spine_bot_ow[13] spine_bot_ow[14] 0.000423962
8 spine_bot_ow[13] *85:22 0
9 spine_bot_ow[13] *310:8 2.10926e-05
10 *2645:A *239:12 0
11 *84:22 *2646:A 0
12 *84:22 *85:22 0
13 *84:22 *239:12 0
14 *84:22 *300:10 0
15 *84:22 *310:8 0.000258436
16 spine_bot_ow[12] spine_bot_ow[13] 0.000423962
17 *2644:A *2645:A 0
18 *2644:A *84:22 0
19 *24:64 *84:22 7.91493e-05
20 *83:29 *84:22 0
*RES
1 *2372:Z *84:6 38 
2 *84:6 spine_bot_ow[13] 18.6332 
3 *84:6 *84:22 65.9957 
4 *84:22 *2554:DIODE 39.0979 
5 *84:22 *2645:A 47.0107 
*END

*D_NET *85 0.00915943
*CONN
*P spine_bot_ow[14] I
*I *2646:A I *D sky130_fd_sc_hd__inv_2
*I *2555:DIODE I *D sky130_fd_sc_hd__diode_2
*I *2373:Z O *D sky130_fd_sc_hd__ebufn_1
*CAP
1 spine_bot_ow[14] 0.000594299
2 *2646:A 0.000223488
3 *2555:DIODE 3.42813e-05
4 *2373:Z 0
5 *85:22 0.00338229
6 *85:6 0.00371882
7 spine_bot_ow[14] spine_bot_ow[15] 0.000284109
8 spine_bot_ow[14] spine_bot_ow[17] 0
9 spine_bot_ow[14] *88:22 0
10 *2555:DIODE *239:8 1.94812e-05
11 *2646:A *2610:A 0
12 *2646:A *239:12 0.00035793
13 *85:22 *88:22 0
14 *85:22 *88:42 0.00012077
15 *85:22 *89:22 0
16 spine_bot_ow[13] spine_bot_ow[14] 0.000423962
17 spine_bot_ow[13] *85:22 0
18 *24:64 *85:22 0
19 *84:22 *2646:A 0
20 *84:22 *85:22 0
*RES
1 *2373:Z *85:6 38 
2 *85:6 spine_bot_ow[14] 18.9767 
3 *85:6 *85:22 61.0657 
4 *85:22 *2555:DIODE 38.6214 
5 *85:22 *2646:A 43.7793 
*END

*D_NET *86 0.012725
*CONN
*P spine_bot_ow[15] I
*I *2647:A I *D sky130_fd_sc_hd__inv_2
*I *2556:DIODE I *D sky130_fd_sc_hd__diode_2
*I *2374:Z O *D sky130_fd_sc_hd__ebufn_1
*CAP
1 spine_bot_ow[15] 0.000942169
2 *2647:A 0.000374949
3 *2556:DIODE 0.000245108
4 *2374:Z 0
5 *86:22 0.00373066
6 *86:6 0.00405277
7 spine_bot_ow[15] spine_bot_ow[16] 0.00107012
8 spine_bot_ow[15] spine_bot_ow[17] 1.91374e-05
9 spine_bot_ow[15] spine_bot_ow[19] 6.07327e-06
10 spine_bot_ow[15] *2374:TE_B 0
11 spine_bot_ow[15] *87:22 0
12 spine_bot_ow[15] *167:36 0
13 *2556:DIODE *2557:DIODE 0.00014196
14 *2556:DIODE *2560:DIODE 9.67842e-05
15 *2647:A *2611:A 0
16 *2647:A *2613:A 0
17 *2647:A *2648:A 0
18 *2647:A *308:10 5.50049e-05
19 *86:22 spine_bot_ow[20] 8.62073e-06
20 *86:22 *2613:A 0
21 *86:22 *87:22 0
22 *86:22 *90:24 0
23 *86:22 *92:22 0.00169758
24 *86:22 *93:22 0
25 *86:22 *166:119 0
26 *86:22 *167:36 0
27 spine_bot_ow[14] spine_bot_ow[15] 0.000284109
28 *4:13 spine_bot_ow[15] 0
*RES
1 *2374:Z *86:6 38 
2 *86:6 spine_bot_ow[15] 19.8017 
3 *86:6 *86:22 72.6864 
4 *86:22 *2556:DIODE 42.9093 
5 *86:22 *2647:A 45.105 
*END

*D_NET *87 0.0135287
*CONN
*P spine_bot_ow[16] I
*I *2648:A I *D sky130_fd_sc_hd__inv_2
*I *2557:DIODE I *D sky130_fd_sc_hd__diode_2
*I *2375:Z O *D sky130_fd_sc_hd__ebufn_1
*CAP
1 spine_bot_ow[16] 0.000949957
2 *2648:A 0.000346541
3 *2557:DIODE 0.000386805
4 *2375:Z 0
5 *87:22 0.00296667
6 *87:6 0.00318328
7 spine_bot_ow[16] spine_bot_ow[17] 0.000238976
8 spine_bot_ow[16] spine_bot_ow[21] 0
9 spine_bot_ow[16] spine_bot_ow[22] 0.00015105
10 spine_bot_ow[16] spine_bot_ow[23] 0
11 *2557:DIODE *2613:A 5.12328e-05
12 *2648:A *2613:A 2.99716e-05
13 *2648:A *2614:A 2.82307e-05
14 *2648:A *2615:A 0
15 *2648:A *2664:A 0.000222457
16 *2648:A *249:10 0
17 *2648:A *276:16 0
18 *2648:A *308:10 9.84794e-05
19 *87:22 spine_bot_ow[21] 8.62073e-06
20 *87:22 spine_bot_ow[22] 8.48027e-05
21 *87:22 *2613:A 0.00014726
22 *87:22 *2614:A 0.000151497
23 *87:22 *93:22 0.0016227
24 *87:22 *94:22 0.0016481
25 spine_bot_ow[15] spine_bot_ow[16] 0.00107012
26 spine_bot_ow[15] *87:22 0
27 *2556:DIODE *2557:DIODE 0.00014196
28 *2647:A *2648:A 0
29 *4:13 spine_bot_ow[16] 0
30 *86:22 *87:22 0
*RES
1 *2375:Z *87:6 38 
2 *87:6 spine_bot_ow[16] 20.7226 
3 *87:6 *87:22 72.3343 
4 *87:22 *2557:DIODE 43.3857 
5 *87:22 *2648:A 45.9336 
*END

*D_NET *88 0.00884152
*CONN
*P spine_bot_ow[17] I
*I *2603:A I *D sky130_fd_sc_hd__buf_2
*I *2558:DIODE I *D sky130_fd_sc_hd__diode_2
*I *2376:Z O *D sky130_fd_sc_hd__ebufn_1
*CAP
1 spine_bot_ow[17] 0.000458897
2 *2603:A 0
3 *2558:DIODE 0.000376805
4 *2376:Z 0
5 *88:42 0.000286687
6 *88:22 0.0022249
7 *88:6 0.00259368
8 spine_bot_ow[17] spine_bot_ow[18] 0.000415604
9 spine_bot_ow[17] *166:75 0
10 *88:22 spine_bot_ow[18] 9.86551e-06
11 *88:22 *89:22 0.0020962
12 *88:22 *166:75 0
13 *88:42 *2610:A 0
14 *88:42 *89:22 0
15 spine_bot_ow[14] spine_bot_ow[17] 0
16 spine_bot_ow[14] *88:22 0
17 spine_bot_ow[15] spine_bot_ow[17] 1.91374e-05
18 spine_bot_ow[16] spine_bot_ow[17] 0.000238976
19 *85:22 *88:22 0
20 *85:22 *88:42 0.00012077
*RES
1 *2376:Z *88:6 38 
2 *88:6 spine_bot_ow[17] 18.6332 
3 *88:6 *88:22 54.7271 
4 *88:22 *2558:DIODE 39.0979 
5 *2558:DIODE *88:42 43.8207 
6 *88:42 *2603:A 38 
*END

*D_NET *89 0.00929443
*CONN
*P spine_bot_ow[18] I
*I *2610:A I *D sky130_fd_sc_hd__buf_2
*I *2559:DIODE I *D sky130_fd_sc_hd__diode_2
*I *2377:Z O *D sky130_fd_sc_hd__ebufn_1
*CAP
1 spine_bot_ow[18] 0.000418959
2 *2610:A 0.000361995
3 *2559:DIODE 0
4 *2377:Z 0
5 *89:22 0.00274483
6 *89:6 0.0028018
7 spine_bot_ow[18] spine_bot_ow[19] 0.000406904
8 spine_bot_ow[18] spine_bot_ow[20] 1.16563e-05
9 spine_bot_ow[18] *166:75 8.62073e-06
10 *2610:A *90:24 0
11 *89:22 *90:24 0
12 *89:22 *166:75 1.7992e-05
13 spine_bot_ow[17] spine_bot_ow[18] 0.000415604
14 *2646:A *2610:A 0
15 *85:22 *89:22 0
16 *88:22 spine_bot_ow[18] 9.86551e-06
17 *88:22 *89:22 0.0020962
18 *88:42 *2610:A 0
19 *88:42 *89:22 0
*RES
1 *2377:Z *89:6 38 
2 *89:6 spine_bot_ow[18] 18.4491 
3 *89:6 *89:22 60.0093 
4 *89:22 *2559:DIODE 38 
5 *89:22 *2610:A 44.8771 
*END

*D_NET *90 0.0108924
*CONN
*P spine_bot_ow[19] I
*I *2611:A I *D sky130_fd_sc_hd__buf_2
*I *2560:DIODE I *D sky130_fd_sc_hd__diode_2
*I *2378:Z O *D sky130_fd_sc_hd__ebufn_1
*CAP
1 spine_bot_ow[19] 0.000383159
2 *2611:A 0.000434546
3 *2560:DIODE 7.68064e-05
4 *2378:Z 4.84596e-05
5 *90:24 0.00330765
6 *90:8 0.00322792
7 spine_bot_ow[19] spine_bot_ow[20] 0.000413441
8 spine_bot_ow[19] *166:119 5.09072e-05
9 spine_bot_ow[19] *167:61 2.33476e-05
10 spine_bot_ow[19] *167:191 2.49269e-05
11 *2611:A *92:42 0.000140661
12 *2611:A *238:132 0
13 *2611:A *308:10 0.0002246
14 *90:8 *166:119 3.7122e-06
15 *90:8 *167:23 8.39049e-06
16 *90:8 *167:32 4.84129e-06
17 *90:24 *92:22 0.00167709
18 *90:24 *92:42 3.83778e-05
19 *90:24 *166:119 0.000129504
20 *90:24 *167:191 0.000164282
21 spine_bot_ow[15] spine_bot_ow[19] 6.07327e-06
22 spine_bot_ow[18] spine_bot_ow[19] 0.000406904
23 *2556:DIODE *2560:DIODE 9.67842e-05
24 *2610:A *90:24 0
25 *2647:A *2611:A 0
26 *86:22 *90:24 0
27 *89:22 *90:24 0
*RES
1 *2378:Z *90:8 38.6214 
2 *90:8 spine_bot_ow[19] 18.5473 
3 *90:8 *90:24 68.8129 
4 *90:24 *2560:DIODE 39.0979 
5 *90:24 *2611:A 47.3629 
*END

*D_NET *91 0.0114773
*CONN
*P spine_bot_ow[1] I
*I *2667:A I *D sky130_fd_sc_hd__inv_2
*I *2561:DIODE I *D sky130_fd_sc_hd__diode_2
*I *2369:Z O *D sky130_fd_sc_hd__ebufn_1
*CAP
1 spine_bot_ow[1] 0.000732051
2 *2667:A 0
3 *2561:DIODE 0.000368921
4 *2369:Z 0
5 *91:42 0.000230732
6 *91:22 0.00181836
7 *91:6 0.00241222
8 spine_bot_ow[1] spine_bot_ow[2] 0.000454416
9 spine_bot_ow[1] spine_bot_ow[3] 7.13028e-05
10 spine_bot_ow[1] *99:24 4.6318e-06
11 spine_bot_ow[1] *100:10 0
12 *91:22 spine_bot_ow[2] 2.47015e-05
13 *91:22 *98:24 0.000188198
14 *91:22 *98:26 0.00243226
15 *91:22 *99:24 0.00256578
16 *91:42 *238:12 5.61311e-05
17 *80:15 spine_bot_ow[1] 0.000117566
*RES
1 *2369:Z *91:6 38 
2 *91:6 spine_bot_ow[1] 19.8116 
3 *91:6 *91:22 65.9957 
4 *91:22 *2561:DIODE 39.5743 
5 *2561:DIODE *91:42 41.8321 
6 *91:42 *2667:A 38 
*END

*D_NET *92 0.00994256
*CONN
*P spine_bot_ow[20] I
*I *2612:A I *D sky130_fd_sc_hd__buf_2
*I *2562:DIODE I *D sky130_fd_sc_hd__diode_2
*I *2379:Z O *D sky130_fd_sc_hd__ebufn_1
*CAP
1 spine_bot_ow[20] 0.000376983
2 *2612:A 0
3 *2562:DIODE 0.00043481
4 *2379:Z 0
5 *92:42 0.000345408
6 *92:22 0.00199344
7 *92:6 0.00228102
8 spine_bot_ow[20] spine_bot_ow[21] 0.000476643
9 spine_bot_ow[20] *166:119 9.86551e-06
10 *92:22 *166:119 3.08858e-05
11 *92:42 *238:132 6.07611e-06
12 *92:42 *246:12 0
13 spine_bot_ow[18] spine_bot_ow[20] 1.16563e-05
14 spine_bot_ow[19] spine_bot_ow[20] 0.000413441
15 *2611:A *92:42 0.000140661
16 *86:22 spine_bot_ow[20] 8.62073e-06
17 *86:22 *92:22 0.00169758
18 *90:24 *92:22 0.00167709
19 *90:24 *92:42 3.83778e-05
*RES
1 *2379:Z *92:6 38 
2 *92:6 spine_bot_ow[20] 18.4491 
3 *92:6 *92:22 64.9393 
4 *92:22 *2562:DIODE 39.0979 
5 *2562:DIODE *92:42 44.2971 
6 *92:42 *2612:A 38 
*END

*D_NET *93 0.00968241
*CONN
*P spine_bot_ow[21] I
*I *2613:A I *D sky130_fd_sc_hd__buf_2
*I *2563:DIODE I *D sky130_fd_sc_hd__diode_2
*I *2381:Z O *D sky130_fd_sc_hd__ebufn_1
*CAP
1 spine_bot_ow[21] 0.000556267
2 *2613:A 0.000397348
3 *2563:DIODE 5.45698e-05
4 *2381:Z 0
5 *93:22 0.00298482
6 *93:6 0.00308916
7 spine_bot_ow[21] spine_bot_ow[22] 0.000263815
8 spine_bot_ow[21] spine_bot_ow[24] 0
9 spine_bot_ow[16] spine_bot_ow[21] 0
10 spine_bot_ow[20] spine_bot_ow[21] 0.000476643
11 *2557:DIODE *2613:A 5.12328e-05
12 *2647:A *2613:A 0
13 *2648:A *2613:A 2.99716e-05
14 *86:22 *2613:A 0
15 *86:22 *93:22 0
16 *87:22 spine_bot_ow[21] 8.62073e-06
17 *87:22 *2613:A 0.00014726
18 *87:22 *93:22 0.0016227
*RES
1 *2381:Z *93:6 38 
2 *93:6 spine_bot_ow[21] 18.7067 
3 *93:6 *93:22 62.1221 
4 *93:22 *2563:DIODE 38.6214 
5 *93:22 *2613:A 46.8864 
*END

*D_NET *94 0.0101277
*CONN
*P spine_bot_ow[22] I
*I *2614:A I *D sky130_fd_sc_hd__buf_2
*I *2564:DIODE I *D sky130_fd_sc_hd__diode_2
*I *2382:Z O *D sky130_fd_sc_hd__ebufn_1
*CAP
1 spine_bot_ow[22] 0.000606831
2 *2614:A 0.000418506
3 *2564:DIODE 5.45698e-05
4 *2382:Z 0
5 *94:22 0.00305808
6 *94:6 0.00319183
7 spine_bot_ow[22] spine_bot_ow[23] 0.000331171
8 spine_bot_ow[22] spine_bot_ow[24] 6.24524e-06
9 spine_bot_ow[22] *95:22 0
10 spine_bot_ow[22] *166:91 0
11 *2614:A *2566:DIODE 2.93747e-05
12 *2614:A *2615:A 0
13 *2614:A *95:22 0
14 *2614:A *249:10 0.000103637
15 *94:22 *95:22 0
16 *94:22 *166:91 0
17 spine_bot_ow[16] spine_bot_ow[22] 0.00015105
18 spine_bot_ow[21] spine_bot_ow[22] 0.000263815
19 *2648:A *2614:A 2.82307e-05
20 *4:13 spine_bot_ow[22] 0
21 *87:22 spine_bot_ow[22] 8.48027e-05
22 *87:22 *2614:A 0.000151497
23 *87:22 *94:22 0.0016481
*RES
1 *2382:Z *94:6 38 
2 *94:6 spine_bot_ow[22] 21.8634 
3 *94:6 *94:22 63.1786 
4 *94:22 *2564:DIODE 38.6214 
5 *94:22 *2614:A 47.8393 
*END

*D_NET *95 0.00996606
*CONN
*P spine_bot_ow[23] I
*I *2615:A I *D sky130_fd_sc_hd__buf_2
*I *2565:DIODE I *D sky130_fd_sc_hd__diode_2
*I *2383:Z O *D sky130_fd_sc_hd__ebufn_1
*CAP
1 spine_bot_ow[23] 0.000455735
2 *2615:A 0.000418975
3 *2565:DIODE 5.45426e-05
4 *2383:Z 0
5 *95:22 0.00403714
6 *95:6 0.00401936
7 spine_bot_ow[23] spine_bot_ow[24] 0.000238976
8 spine_bot_ow[23] *96:41 0
9 spine_bot_ow[23] *97:15 2.47015e-05
10 *2615:A *2616:A 0
11 *2615:A *96:8 0
12 *2615:A *249:10 0.000141879
13 *95:22 *96:8 0
14 *95:22 *96:41 2.26497e-05
15 *95:22 *166:91 0.000220931
16 spine_bot_ow[16] spine_bot_ow[23] 0
17 spine_bot_ow[22] spine_bot_ow[23] 0.000331171
18 spine_bot_ow[22] *95:22 0
19 *2614:A *2615:A 0
20 *2614:A *95:22 0
21 *2648:A *2615:A 0
22 *4:13 spine_bot_ow[23] 0
23 *94:22 *95:22 0
*RES
1 *2383:Z *95:6 38 
2 *95:6 spine_bot_ow[23] 19.7095 
3 *95:6 *95:22 68.8129 
4 *95:22 *2565:DIODE 38.6214 
5 *95:22 *2615:A 46.0579 
*END

*D_NET *96 0.0104923
*CONN
*P spine_bot_ow[24] I
*I *2616:A I *D sky130_fd_sc_hd__buf_2
*I *2566:DIODE I *D sky130_fd_sc_hd__diode_2
*I *2384:Z O *D sky130_fd_sc_hd__ebufn_1
*CAP
1 spine_bot_ow[24] 0.000599332
2 *2616:A 0.000231359
3 *2566:DIODE 0.000121388
4 *2384:Z 0.000183503
5 *96:41 0.000782835
6 *96:8 0.00295781
7 *96:6 0.00260506
8 spine_bot_ow[24] *97:15 0.000113803
9 *2566:DIODE *250:8 1.39431e-05
10 *2616:A *251:8 5.25848e-05
11 spine_bot_ow[21] spine_bot_ow[24] 0
12 spine_bot_ow[22] spine_bot_ow[24] 6.24524e-06
13 spine_bot_ow[23] spine_bot_ow[24] 0.000238976
14 spine_bot_ow[23] *96:41 0
15 *2614:A *2566:DIODE 2.93747e-05
16 *2615:A *2616:A 0
17 *2615:A *96:8 0
18 *23:15 *2616:A 0.000119818
19 *23:15 *96:8 0.0024136
20 *95:22 *96:8 0
21 *95:22 *96:41 2.26497e-05
*RES
1 *2384:Z *96:6 38 
2 *96:6 *96:8 66.3479 
3 *96:8 *2566:DIODE 40.0507 
4 *96:8 *2616:A 42.8886 
5 *2384:Z *96:41 46.6776 
6 *96:41 spine_bot_ow[24] 10.0291 
*END

*D_NET *97 0.000820982
*CONN
*P spine_bot_ow[25] I
*I *2567:DIODE I *D sky130_fd_sc_hd__diode_2
*CAP
1 spine_bot_ow[25] 0.000334215
2 *2567:DIODE 0
3 *97:15 0.000334215
4 spine_bot_ow[23] *97:15 2.47015e-05
5 spine_bot_ow[24] *97:15 0.000113803
6 *4:13 *97:15 1.40476e-05
*RES
1 spine_bot_ow[25] *97:15 34.743 
2 *97:15 *2567:DIODE 23 
*END

*D_NET *98 0.0130393
*CONN
*P spine_bot_ow[2] I
*I *2674:A I *D sky130_fd_sc_hd__inv_2
*I *2572:DIODE I *D sky130_fd_sc_hd__diode_2
*I *2380:Z O *D sky130_fd_sc_hd__ebufn_1
*CAP
1 spine_bot_ow[2] 0.000460142
2 *2674:A 0.000265264
3 *2572:DIODE 9.48457e-05
4 *2380:Z 0
5 *98:26 0.00235768
6 *98:24 0.00214421
7 *98:6 0.000606778
8 spine_bot_ow[2] spine_bot_ow[3] 0.00042272
9 spine_bot_ow[2] spine_bot_ow[7] 0
10 *2572:DIODE *238:16 9.67842e-05
11 *2572:DIODE *238:22 1.24376e-05
12 *2674:A *2675:A 0
13 *2674:A *238:213 6.4393e-05
14 *2674:A *238:224 0.000118797
15 *2674:A *238:228 5.50106e-05
16 *2674:A *238:248 1.12487e-05
17 *2674:A *263:12 0
18 *2674:A *294:10 6.17437e-06
19 *2674:A *295:10 0
20 *2674:A *301:10 8.62783e-05
21 *98:26 *2675:A 0
22 *98:26 *99:24 0
23 *98:26 *162:8 0.000631804
24 *98:26 *238:12 0.00213596
25 *98:26 *238:213 1.12487e-05
26 *98:26 *238:291 0
27 *98:26 *287:10 0.00035793
28 spine_bot_ow[1] spine_bot_ow[2] 0.000454416
29 *2366:A *98:24 0
30 *91:22 spine_bot_ow[2] 2.47015e-05
31 *91:22 *98:24 0.000188198
32 *91:22 *98:26 0.00243226
*RES
1 *2380:Z *98:6 38 
2 *98:6 spine_bot_ow[2] 18.7067 
3 *98:6 *98:24 3.2625 
4 *98:24 *98:26 72.3032 
5 *98:26 *2572:DIODE 39.5743 
6 *98:26 *2674:A 44.0486 
*END

*D_NET *99 0.011574
*CONN
*P spine_bot_ow[3] I
*I *2675:A I *D sky130_fd_sc_hd__inv_2
*I *2583:DIODE I *D sky130_fd_sc_hd__diode_2
*I *2385:Z O *D sky130_fd_sc_hd__ebufn_1
*CAP
1 spine_bot_ow[3] 0.000382568
2 *2675:A 0.000337817
3 *2583:DIODE 0
4 *2385:Z 0.000153637
5 *99:24 0.00300747
6 *99:8 0.00320585
7 spine_bot_ow[3] spine_bot_ow[4] 0.00030156
8 spine_bot_ow[3] spine_bot_ow[5] 2.44917e-05
9 spine_bot_ow[3] *166:16 2.50227e-05
10 *2675:A *2676:A 0
11 *2675:A *2686:S 9.84851e-05
12 *2675:A *105:42 0
13 *2675:A *263:12 0.000567678
14 *2675:A *287:10 0.000123256
15 *2675:A *295:10 1.94812e-05
16 *2675:A *301:10 2.79004e-05
17 *99:8 *2369:TE_B 2.93845e-05
18 *99:8 *166:20 1.22822e-05
19 *99:8 *167:144 2.93747e-05
20 *99:24 *2676:A 0
21 *99:24 *100:10 0
22 *99:24 *105:42 0
23 *99:24 *166:10 8.16356e-05
24 *99:24 *166:12 3.3123e-05
25 *99:24 *166:16 4.85126e-05
26 spine_bot_ow[1] spine_bot_ow[3] 7.13028e-05
27 spine_bot_ow[1] *99:24 4.6318e-06
28 spine_bot_ow[2] spine_bot_ow[3] 0.00042272
29 *2674:A *2675:A 0
30 *91:22 *99:24 0.00256578
31 *98:26 *2675:A 0
32 *98:26 *99:24 0
*RES
1 *2385:Z *99:8 40.0507 
2 *99:8 spine_bot_ow[3] 18.7191 
3 *99:8 *99:24 68.8129 
4 *99:24 *2583:DIODE 38 
5 *99:24 *2675:A 48.3986 
*END

*D_NET *100 0.00942517
*CONN
*P spine_bot_ow[4] I
*I *2676:A I *D sky130_fd_sc_hd__inv_2
*I *2594:DIODE I *D sky130_fd_sc_hd__diode_2
*I *2386:Z O *D sky130_fd_sc_hd__ebufn_1
*CAP
1 spine_bot_ow[4] 0.000261497
2 *2676:A 0.000312334
3 *2594:DIODE 0
4 *2386:Z 0
5 *100:10 0.0038764
6 *100:8 0.00365246
7 *100:4 0.000349892
8 spine_bot_ow[4] spine_bot_ow[5] 0.00030671
9 spine_bot_ow[4] *166:170 0
10 *2676:A *2677:A 0
11 *2676:A *101:22 0
12 *2676:A *105:42 0.000169674
13 *2676:A *263:12 0
14 *2676:A *270:14 0
15 *100:10 spine_bot_ow[5] 0
16 *100:10 *101:22 0
17 *100:10 *166:10 5.08899e-05
18 *100:10 *166:12 9.21347e-06
19 *100:10 *166:170 4.58924e-05
20 *100:10 *167:152 8.8645e-05
21 spine_bot_ow[1] *100:10 0
22 spine_bot_ow[3] spine_bot_ow[4] 0.00030156
23 *2675:A *2676:A 0
24 *4:13 spine_bot_ow[4] 0
25 *99:24 *2676:A 0
26 *99:24 *100:10 0
*RES
1 *2386:Z *100:4 23 
2 *100:4 *100:8 16.0979 
3 *100:8 *100:10 68.8129 
4 *100:10 *2594:DIODE 38 
5 *100:10 *2676:A 44.4836 
6 *100:4 spine_bot_ow[4] 33.1255 
*END

*D_NET *101 0.0106252
*CONN
*P spine_bot_ow[5] I
*I *2677:A I *D sky130_fd_sc_hd__inv_2
*I *2597:DIODE I *D sky130_fd_sc_hd__diode_2
*I *2387:Z O *D sky130_fd_sc_hd__ebufn_1
*CAP
1 spine_bot_ow[5] 0.000595048
2 *2677:A 0.000164259
3 *2597:DIODE 4.55235e-05
4 *2387:Z 0
5 *101:22 0.00295191
6 *101:6 0.00333718
7 spine_bot_ow[5] spine_bot_ow[6] 0.000336693
8 spine_bot_ow[5] spine_bot_ow[7] 2.45775e-05
9 spine_bot_ow[5] *102:24 2.74987e-05
10 *2677:A *2678:A 3.82852e-05
11 *2677:A *270:14 7.28526e-05
12 *2677:A *271:14 0
13 *2677:A *298:8 0
14 *101:22 *2678:A 0.000113624
15 *101:22 *102:24 0.00255717
16 spine_bot_ow[3] spine_bot_ow[5] 2.44917e-05
17 spine_bot_ow[4] spine_bot_ow[5] 0.00030671
18 *2676:A *2677:A 0
19 *2676:A *101:22 0
20 *81:39 *2597:DIODE 2.93845e-05
21 *100:10 spine_bot_ow[5] 0
22 *100:10 *101:22 0
*RES
1 *2387:Z *101:6 38 
2 *101:6 spine_bot_ow[5] 19.0625 
3 *101:6 *101:22 68.8129 
4 *101:22 *2597:DIODE 38.6214 
5 *101:22 *2677:A 41.6664 
*END

*D_NET *102 0.0105932
*CONN
*P spine_bot_ow[6] I
*I *2678:A I *D sky130_fd_sc_hd__inv_2
*I *2598:DIODE I *D sky130_fd_sc_hd__diode_2
*I *2388:Z O *D sky130_fd_sc_hd__ebufn_1
*CAP
1 spine_bot_ow[6] 0.00042018
2 *2678:A 0.000208567
3 *2598:DIODE 0
4 *2388:Z 4.15048e-05
5 *102:24 0.00217838
6 *102:8 0.0024315
7 spine_bot_ow[6] spine_bot_ow[7] 0.000300177
8 spine_bot_ow[6] spine_bot_ow[9] 1.88594e-05
9 spine_bot_ow[6] *166:170 0
10 *2678:A *2679:A 0
11 *2678:A *105:22 7.75329e-06
12 *102:8 *2386:A 3.22051e-05
13 *102:24 spine_bot_ow[9] 8.6547e-05
14 *102:24 *105:22 0.0016958
15 *102:24 *166:170 0
16 spine_bot_ow[5] spine_bot_ow[6] 0.000336693
17 spine_bot_ow[5] *102:24 2.74987e-05
18 *2677:A *2678:A 3.82852e-05
19 *4:13 spine_bot_ow[6] 0
20 *81:39 *2678:A 9.84794e-05
21 *101:22 *2678:A 0.000113624
22 *101:22 *102:24 0.00255717
*RES
1 *2388:Z *102:8 38.6214 
2 *102:8 spine_bot_ow[6] 18.3831 
3 *102:8 *102:24 68.8129 
4 *102:24 *2598:DIODE 38 
5 *102:24 *2678:A 43.1164 
*END

*D_NET *103 0.0121368
*CONN
*P spine_bot_ow[7] I
*I *2679:A I *D sky130_fd_sc_hd__inv_2
*I *2599:DIODE I *D sky130_fd_sc_hd__diode_2
*I *2389:Z O *D sky130_fd_sc_hd__ebufn_1
*CAP
1 spine_bot_ow[7] 0.000671372
2 *2679:A 0.000255988
3 *2599:DIODE 0
4 *2389:Z 0
5 *103:22 0.00243114
6 *103:6 0.00284652
7 spine_bot_ow[7] spine_bot_ow[8] 0.000238976
8 spine_bot_ow[7] spine_bot_ow[9] 2.76315e-05
9 spine_bot_ow[7] *104:28 8.62073e-06
10 *2679:A *105:22 0.000255292
11 *2679:A *271:14 8.41115e-05
12 *103:22 spine_bot_ow[9] 1.05441e-05
13 *103:22 *104:28 8.23173e-05
14 *103:22 *105:22 0.00472725
15 spine_bot_ow[10] spine_bot_ow[7] 0
16 spine_bot_ow[12] spine_bot_ow[7] 0
17 spine_bot_ow[2] spine_bot_ow[7] 0
18 spine_bot_ow[5] spine_bot_ow[7] 2.45775e-05
19 spine_bot_ow[6] spine_bot_ow[7] 0.000300177
20 *2678:A *2679:A 0
21 *81:22 *103:22 0
22 *81:39 *2679:A 5.50049e-05
23 *82:44 *2679:A 9.43301e-05
24 *82:44 *103:22 2.29192e-05
*RES
1 *2389:Z *103:6 38 
2 *103:6 spine_bot_ow[7] 18.7925 
3 *103:6 *103:22 62.1221 
4 *103:22 *2599:DIODE 38 
5 *103:22 *2679:A 45.4571 
*END

*D_NET *104 0.00317267
*CONN
*P spine_bot_ow[8] I
*I *2600:DIODE I *D sky130_fd_sc_hd__diode_2
*I *2680:A I *D sky130_fd_sc_hd__inv_2
*I *2390:Z O *D sky130_fd_sc_hd__ebufn_1
*CAP
1 spine_bot_ow[8] 0.000288369
2 *2600:DIODE 0
3 *2680:A 0
4 *2390:Z 7.2664e-05
5 *104:28 0.000591053
6 *104:8 0.000879422
7 *104:6 7.2664e-05
8 spine_bot_ow[8] spine_bot_ow[9] 0.000420131
9 *104:6 *2390:TE_B 5.40655e-05
10 *104:28 spine_bot_ow[9] 0
11 *104:28 *167:107 0
12 spine_bot_ow[10] *104:28 2.36993e-05
13 spine_bot_ow[7] spine_bot_ow[8] 0.000238976
14 spine_bot_ow[7] *104:28 8.62073e-06
15 *4:13 spine_bot_ow[8] 0
16 *24:68 *104:28 0.000269775
17 *81:22 *104:28 0.000170909
18 *103:22 *104:28 8.23173e-05
*RES
1 *2390:Z *104:6 24.0979 
2 *104:6 *104:8 15 
3 *104:8 spine_bot_ow[8] 17.6912 
4 *104:8 *104:28 27.3043 
5 *104:28 *2680:A 23 
6 *104:6 *2600:DIODE 23 
*END

*D_NET *105 0.0132223
*CONN
*P spine_bot_ow[9] I
*I *2635:A I *D sky130_fd_sc_hd__inv_2
*I *2601:DIODE I *D sky130_fd_sc_hd__diode_2
*I *2391:Z O *D sky130_fd_sc_hd__ebufn_1
*CAP
1 spine_bot_ow[9] 0.00058837
2 *2635:A 4.24211e-05
3 *2601:DIODE 0.000552912
4 *2391:Z 0
5 *105:42 0.000453669
6 *105:22 0.00172233
7 *105:6 0.00216904
8 spine_bot_ow[10] spine_bot_ow[9] 0.000274112
9 spine_bot_ow[6] spine_bot_ow[9] 1.88594e-05
10 spine_bot_ow[7] spine_bot_ow[9] 2.76315e-05
11 spine_bot_ow[8] spine_bot_ow[9] 0.000420131
12 *2675:A *105:42 0
13 *2676:A *105:42 0.000169674
14 *2678:A *105:22 7.75329e-06
15 *2679:A *105:22 0.000255292
16 *99:24 *105:42 0
17 *102:24 spine_bot_ow[9] 8.6547e-05
18 *102:24 *105:22 0.0016958
19 *103:22 spine_bot_ow[9] 1.05441e-05
20 *103:22 *105:22 0.00472725
21 *104:28 spine_bot_ow[9] 0
*RES
1 *2391:Z *105:6 38 
2 *105:6 spine_bot_ow[9] 22.834 
3 *105:6 *105:22 65.2914 
4 *105:22 *2601:DIODE 40.0507 
5 *2601:DIODE *105:42 44.2143 
6 *105:42 *2635:A 38.6214 
*END

*D_NET *106 0.000519128
*CONN
*P spine_top_iw[0] O
*I *2514:LO O *D sky130_fd_sc_hd__conb_1
*CAP
1 spine_top_iw[0] 0.000118349
2 *2514:LO 9.31502e-05
3 *106:12 0.000211499
4 spine_top_iw[0] spine_top_iw[1] 9.03476e-05
5 spine_top_iw[0] spine_top_iw[2] 5.78253e-06
6 *106:12 *117:12 0
7 pad_uio_out[4] spine_top_iw[0] 0
8 *18:53 *106:12 0
9 *22:17 spine_top_iw[0] 0
*RES
1 *2514:LO *106:12 46.5059 
2 *106:12 spine_top_iw[0] 8.50587 
*END

*D_NET *107 0.00254522
*CONN
*P spine_top_iw[10] O
*I *2513:X O *D sky130_fd_sc_hd__buf_8
*CAP
1 spine_top_iw[10] 0.000358182
2 *2513:X 0.000644326
3 *107:8 0.00100251
4 spine_top_iw[10] spine_top_iw[11] 0.000270972
5 spine_top_iw[10] spine_top_iw[13] 0
6 spine_top_iw[10] spine_top_iw[8] 6.12168e-05
7 spine_top_iw[10] spine_top_iw[9] 3.15154e-05
8 spine_top_iw[10] *108:12 4.25785e-05
9 *107:8 spine_top_iw[14] 0
10 *107:8 spine_top_iw[9] 0
11 *107:8 *199:19 8.16253e-05
12 *9:47 *107:8 0
13 *17:31 spine_top_iw[10] 5.22967e-05
*RES
1 *2513:X *107:8 47.8289 
2 *107:8 spine_top_iw[10] 17.5792 
*END

*D_NET *108 0.00230952
*CONN
*P spine_top_iw[11] O
*I *2470:X O *D sky130_fd_sc_hd__buf_8
*CAP
1 spine_top_iw[11] 0.000181622
2 *2470:X 0.000582893
3 *108:12 0.000764515
4 spine_top_iw[11] spine_top_iw[12] 0.00012095
5 spine_top_iw[11] spine_top_iw[13] 3.11963e-05
6 *108:12 spine_top_iw[12] 4.33616e-05
7 *108:12 spine_top_iw[9] 0
8 *108:12 *203:220 5.04995e-05
9 spine_top_iw[10] spine_top_iw[11] 0.000270972
10 spine_top_iw[10] *108:12 4.25785e-05
11 *17:31 *108:12 0.000220931
*RES
1 *2470:X *108:12 48.4895 
2 *108:12 spine_top_iw[11] 9.14053 
*END

*D_NET *109 0.00135061
*CONN
*P spine_top_iw[12] O
*I *2472:X O *D sky130_fd_sc_hd__buf_8
*CAP
1 spine_top_iw[12] 0.00034497
2 *2472:X 0.00018583
3 *109:10 0.000530801
4 spine_top_iw[12] spine_top_iw[13] 0.000124702
5 *109:10 spine_top_iw[9] 0
6 spine_top_iw[11] spine_top_iw[12] 0.00012095
7 *17:31 spine_top_iw[12] 0
8 *108:12 spine_top_iw[12] 4.33616e-05
*RES
1 *2472:X *109:10 49.4904 
2 *109:10 spine_top_iw[12] 9.3776 
*END

*D_NET *110 0.00335944
*CONN
*P spine_top_iw[13] O
*I *2474:X O *D sky130_fd_sc_hd__buf_8
*CAP
1 spine_top_iw[13] 0.000435981
2 *2474:X 0.000608363
3 *110:8 0.00104434
4 spine_top_iw[13] spine_top_iw[14] 0.000478203
5 spine_top_iw[13] spine_top_iw[8] 0
6 spine_top_iw[13] *256:18 0.000193039
7 *110:8 spine_top_iw[14] 0.000346563
8 *110:8 *112:8 0
9 spine_top_iw[10] spine_top_iw[13] 0
10 spine_top_iw[11] spine_top_iw[13] 3.11963e-05
11 spine_top_iw[12] spine_top_iw[13] 0.000124702
12 *18:53 spine_top_iw[13] 9.70492e-05
*RES
1 *2474:X *110:8 49.9418 
2 *110:8 spine_top_iw[13] 18.3856 
*END

*D_NET *111 0.00473107
*CONN
*P spine_top_iw[14] O
*I *2476:X O *D sky130_fd_sc_hd__buf_8
*CAP
1 spine_top_iw[14] 0.00121526
2 *2476:X 0
3 *111:6 0.00121526
4 spine_top_iw[14] spine_top_iw[15] 0.000726264
5 spine_top_iw[14] *199:19 0.000282633
6 spine_top_iw[14] *207:8 0
7 spine_top_iw[13] spine_top_iw[14] 0.000478203
8 *19:25 spine_top_iw[14] 0.000466891
9 *107:8 spine_top_iw[14] 0
10 *110:8 spine_top_iw[14] 0.000346563
*RES
1 *2476:X *111:6 38 
2 *111:6 spine_top_iw[14] 32.0546 
*END

*D_NET *112 0.00365653
*CONN
*P spine_top_iw[15] O
*I *2478:X O *D sky130_fd_sc_hd__buf_8
*CAP
1 spine_top_iw[15] 0.000650272
2 *2478:X 0.000465263
3 *112:8 0.00111554
4 spine_top_iw[15] spine_top_iw[16] 0.000606628
5 *112:8 *203:113 0
6 spine_top_iw[14] spine_top_iw[15] 0.000726264
7 *19:25 spine_top_iw[15] 9.2568e-05
8 *110:8 *112:8 0
*RES
1 *2478:X *112:8 46.4204 
2 *112:8 spine_top_iw[15] 19.2779 
*END

*D_NET *113 0.00413136
*CONN
*P spine_top_iw[16] O
*I *2480:X O *D sky130_fd_sc_hd__buf_8
*CAP
1 spine_top_iw[16] 0.00117166
2 *2480:X 6.28032e-05
3 *113:8 0.00123447
4 spine_top_iw[16] spine_top_iw[17] 0.00032066
5 spine_top_iw[16] spine_top_iw[18] 0
6 spine_top_iw[16] spine_top_iw[19] 0
7 spine_top_iw[16] *114:8 0
8 spine_top_iw[16] *203:113 0.000313911
9 spine_top_iw[16] *203:115 1.22803e-05
10 spine_top_iw[16] *208:8 0.000243596
11 spine_top_iw[16] *209:8 0
12 spine_top_iw[15] spine_top_iw[16] 0.000606628
13 *15:36 *113:8 9.41704e-05
14 *19:25 spine_top_iw[16] 7.11795e-05
*RES
1 *2480:X *113:8 39.0979 
2 *113:8 spine_top_iw[16] 30.8762 
*END

*D_NET *114 0.00256352
*CONN
*P spine_top_iw[17] O
*I *2482:X O *D sky130_fd_sc_hd__buf_8
*CAP
1 spine_top_iw[17] 0.000276019
2 *2482:X 0.000650828
3 *114:8 0.000926847
4 spine_top_iw[17] spine_top_iw[18] 0.00032066
5 spine_top_iw[17] *120:12 1.98035e-05
6 spine_top_iw[17] *256:18 0
7 *114:8 spine_top_iw[18] 0
8 *114:8 *203:113 0
9 *114:8 *214:10 0
10 *114:8 *215:8 3.59619e-05
11 spine_top_iw[16] spine_top_iw[17] 0.00032066
12 spine_top_iw[16] *114:8 0
13 *18:53 *114:8 1.27424e-05
*RES
1 *2482:X *114:8 48.5332 
2 *114:8 spine_top_iw[17] 17.4933 
*END

*D_NET *115 0.0030943
*CONN
*P spine_top_iw[18] O
*I *2484:X O *D sky130_fd_sc_hd__buf_8
*CAP
1 spine_top_iw[18] 0.00095136
2 *2484:X 0
3 *115:6 0.00095136
4 spine_top_iw[18] spine_top_iw[19] 0.000325192
5 spine_top_iw[18] *120:12 1.98035e-05
6 spine_top_iw[18] *210:8 0.000224345
7 spine_top_iw[18] *215:8 3.23422e-05
8 spine_top_iw[18] *216:8 0
9 spine_top_iw[16] spine_top_iw[18] 0
10 spine_top_iw[17] spine_top_iw[18] 0.00032066
11 *19:25 spine_top_iw[18] 0.000269242
12 *114:8 spine_top_iw[18] 0
*RES
1 *2484:X *115:6 38 
2 *115:6 spine_top_iw[18] 30.4915 
*END

*D_NET *116 0.00330383
*CONN
*P spine_top_iw[19] O
*I *2486:X O *D sky130_fd_sc_hd__buf_8
*CAP
1 spine_top_iw[19] 0.00126532
2 *2486:X 0
3 *116:6 0.00126532
4 spine_top_iw[19] spine_top_iw[20] 0.000151549
5 spine_top_iw[19] spine_top_iw[21] 1.79015e-05
6 spine_top_iw[19] spine_top_iw[22] 0
7 spine_top_iw[19] spine_top_iw[24] 0
8 spine_top_iw[19] *210:8 0
9 spine_top_iw[19] *211:8 0.000227497
10 spine_top_iw[19] *256:18 5.10636e-05
11 spine_top_iw[19] *281:12 0
12 spine_top_iw[16] spine_top_iw[19] 0
13 spine_top_iw[18] spine_top_iw[19] 0.000325192
14 *19:25 spine_top_iw[19] 0
*RES
1 *2486:X *116:6 38 
2 *116:6 spine_top_iw[19] 30.7741 
*END

*D_NET *117 0.000849488
*CONN
*P spine_top_iw[1] O
*I *2468:X O *D sky130_fd_sc_hd__buf_8
*CAP
1 spine_top_iw[1] 5.06759e-05
2 *2468:X 0.00028372
3 *117:12 0.000334396
4 spine_top_iw[1] spine_top_iw[2] 9.03476e-05
5 spine_top_iw[0] spine_top_iw[1] 9.03476e-05
6 *17:31 *117:12 0
7 *106:12 *117:12 0
*RES
1 *2468:X *117:12 48.172 
2 *117:12 spine_top_iw[1] 8.37893 
*END

*D_NET *118 0.00243682
*CONN
*P spine_top_iw[20] O
*I *2488:X O *D sky130_fd_sc_hd__buf_8
*CAP
1 spine_top_iw[20] 7.52314e-05
2 *2488:X 0.000803329
3 *118:12 0.00087856
4 spine_top_iw[20] spine_top_iw[21] 0.000151549
5 *118:12 *119:12 0.000376599
6 spine_top_iw[19] spine_top_iw[20] 0.000151549
7 *18:53 *118:12 0
*RES
1 *2488:X *118:12 48.8243 
2 *118:12 spine_top_iw[20] 8.6328 
*END

*D_NET *119 0.00334371
*CONN
*P spine_top_iw[21] O
*I *2490:X O *D sky130_fd_sc_hd__buf_8
*CAP
1 spine_top_iw[21] 0.000165351
2 *2490:X 0.000649508
3 *119:12 0.00081486
4 spine_top_iw[21] spine_top_iw[22] 0.000242738
5 *119:12 *120:12 0.000774725
6 *119:12 *121:12 4.5093e-05
7 *119:12 *213:8 0.000105384
8 *119:12 *214:10 0
9 *119:12 *256:18 0
10 spine_top_iw[19] spine_top_iw[21] 1.79015e-05
11 spine_top_iw[20] spine_top_iw[21] 0.000151549
12 *18:53 *119:12 0
13 *118:12 *119:12 0.000376599
*RES
1 *2490:X *119:12 49.8807 
2 *119:12 spine_top_iw[21] 9.0136 
*END

*D_NET *120 0.0026652
*CONN
*P spine_top_iw[22] O
*I *2492:X O *D sky130_fd_sc_hd__buf_8
*CAP
1 spine_top_iw[22] 0.000182066
2 *2492:X 0.000442505
3 *120:12 0.000624571
4 spine_top_iw[22] spine_top_iw[23] 0.000151549
5 spine_top_iw[22] spine_top_iw[24] 2.49544e-05
6 *120:12 *121:12 4.82709e-05
7 *120:12 *122:12 0.000115622
8 *120:12 *214:10 0
9 *120:12 *215:8 1.85961e-05
10 *120:12 *256:18 0
11 spine_top_iw[17] *120:12 1.98035e-05
12 spine_top_iw[18] *120:12 1.98035e-05
13 spine_top_iw[19] spine_top_iw[22] 0
14 spine_top_iw[21] spine_top_iw[22] 0.000242738
15 *119:12 *120:12 0.000774725
*RES
1 *2492:X *120:12 48.4895 
2 *120:12 spine_top_iw[22] 9.14053 
*END

*D_NET *121 0.00147049
*CONN
*P spine_top_iw[23] O
*I *2494:X O *D sky130_fd_sc_hd__buf_8
*CAP
1 spine_top_iw[23] 6.52964e-05
2 *2494:X 0.000469147
3 *121:12 0.000534444
4 spine_top_iw[23] spine_top_iw[24] 0.000156688
5 spine_top_iw[22] spine_top_iw[23] 0.000151549
6 *119:12 *121:12 4.5093e-05
7 *120:12 *121:12 4.82709e-05
*RES
1 *2494:X *121:12 49.7437 
2 *121:12 spine_top_iw[23] 8.6328 
*END

*D_NET *122 0.00216832
*CONN
*P spine_top_iw[24] O
*I *2496:X O *D sky130_fd_sc_hd__buf_8
*CAP
1 spine_top_iw[24] 0.000253709
2 *2496:X 0.000519727
3 *122:12 0.000773436
4 spine_top_iw[24] spine_top_iw[25] 0.000276721
5 *122:12 *123:12 4.32466e-05
6 *122:12 *216:8 0
7 *122:12 *217:8 0
8 *122:12 *256:18 0
9 spine_top_iw[19] spine_top_iw[24] 0
10 spine_top_iw[22] spine_top_iw[24] 2.49544e-05
11 spine_top_iw[23] spine_top_iw[24] 0.000156688
12 *20:49 *122:12 4.21594e-06
13 *120:12 *122:12 0.000115622
*RES
1 *2496:X *122:12 49.2111 
2 *122:12 spine_top_iw[24] 9.3944 
*END

*D_NET *123 0.00130799
*CONN
*P spine_top_iw[25] O
*I *2498:X O *D sky130_fd_sc_hd__buf_8
*CAP
1 spine_top_iw[25] 0.000197411
2 *2498:X 0.00021485
3 *123:12 0.00041226
4 spine_top_iw[25] spine_top_iw[26] 0.000151549
5 *123:12 *218:8 1.19542e-05
6 *123:12 *256:18 0
7 spine_top_iw[24] spine_top_iw[25] 0.000276721
8 *122:12 *123:12 4.32466e-05
*RES
1 *2498:X *123:12 47.2015 
2 *123:12 spine_top_iw[25] 9.14053 
*END

*D_NET *124 0.000995115
*CONN
*P spine_top_iw[26] O
*I *2500:X O *D sky130_fd_sc_hd__buf_8
*CAP
1 spine_top_iw[26] 7.52314e-05
2 *2500:X 0.000265495
3 *124:12 0.000340726
4 spine_top_iw[26] spine_top_iw[27] 0.000151549
5 *124:12 *125:12 1.05658e-05
6 *124:12 *126:12 0
7 *124:12 *218:8 0
8 *124:12 *219:10 0
9 *124:12 *220:10 0
10 spine_top_iw[25] spine_top_iw[26] 0.000151549
*RES
1 *2500:X *124:12 49.6752 
2 *124:12 spine_top_iw[26] 8.6328 
*END

*D_NET *125 0.000610434
*CONN
*P spine_top_iw[27] O
*I *2502:X O *D sky130_fd_sc_hd__buf_8
*CAP
1 spine_top_iw[27] 7.52314e-05
2 *2502:X 7.31545e-05
3 *125:12 0.000148386
4 spine_top_iw[27] spine_top_iw[28] 0.000151549
5 spine_top_iw[26] spine_top_iw[27] 0.000151549
6 *124:12 *125:12 1.05658e-05
*RES
1 *2502:X *125:12 46.42 
2 *125:12 spine_top_iw[27] 8.6328 
*END

*D_NET *126 0.00108905
*CONN
*P spine_top_iw[28] O
*I *2504:X O *D sky130_fd_sc_hd__buf_8
*CAP
1 spine_top_iw[28] 8.55326e-05
2 *2504:X 0.000237906
3 *126:12 0.000323439
4 spine_top_iw[28] spine_top_iw[29] 0.00012095
5 *126:12 *220:10 0.000169674
6 spine_top_iw[27] spine_top_iw[28] 0.000151549
7 *124:12 *126:12 0
*RES
1 *2504:X *126:12 49.0567 
2 *126:12 spine_top_iw[28] 8.6328 
*END

*D_NET *127 0.000486847
*CONN
*P spine_top_iw[29] O
*I *2515:LO O *D sky130_fd_sc_hd__conb_1
*CAP
1 spine_top_iw[29] 0.000104225
2 *2515:LO 7.87241e-05
3 *127:12 0.000182949
4 spine_top_iw[29] *136:15 0
5 spine_top_iw[28] spine_top_iw[29] 0.00012095
*RES
1 *2515:LO *127:12 46.42 
2 *127:12 spine_top_iw[29] 8.50587 
*END

*D_NET *128 0.00299094
*CONN
*P spine_top_iw[2] O
*I *2505:X O *D sky130_fd_sc_hd__buf_8
*CAP
1 spine_top_iw[2] 0.000313544
2 *2505:X 0.000438824
3 *128:8 0.000752369
4 spine_top_iw[2] spine_top_iw[3] 0.000340693
5 *128:8 spine_top_iw[3] 0.000137256
6 *128:8 *2663:A 0.000664938
7 *128:8 *257:14 0.000222104
8 spine_top_iw[0] spine_top_iw[2] 5.78253e-06
9 spine_top_iw[1] spine_top_iw[2] 9.03476e-05
10 *17:31 spine_top_iw[2] 2.50806e-05
*RES
1 *2505:X *128:8 48.5332 
2 *128:8 spine_top_iw[2] 17.4933 
*END

*D_NET *129 0.00285313
*CONN
*P spine_top_iw[3] O
*I *2506:X O *D sky130_fd_sc_hd__buf_8
*CAP
1 spine_top_iw[3] 0.000848616
2 *2506:X 0
3 *129:6 0.000848616
4 spine_top_iw[3] spine_top_iw[4] 0.000345224
5 spine_top_iw[3] spine_top_iw[6] 0
6 spine_top_iw[3] *130:8 0
7 spine_top_iw[3] *131:8 0
8 spine_top_iw[3] *192:19 0.000113624
9 spine_top_iw[3] *257:14 0.000192681
10 spine_top_iw[2] spine_top_iw[3] 0.000340693
11 *17:31 spine_top_iw[3] 2.64181e-05
12 *128:8 spine_top_iw[3] 0.000137256
*RES
1 *2506:X *129:6 38 
2 *129:6 spine_top_iw[3] 30.4915 
*END

*D_NET *130 0.00215766
*CONN
*P spine_top_iw[4] O
*I *2507:X O *D sky130_fd_sc_hd__buf_8
*CAP
1 spine_top_iw[4] 0.000215132
2 *2507:X 0.000433466
3 *130:8 0.000648598
4 spine_top_iw[4] spine_top_iw[5] 0.000339309
5 spine_top_iw[4] spine_top_iw[6] 6.15953e-06
6 *130:8 spine_top_iw[6] 1.05658e-05
7 *130:8 *131:8 0.000108137
8 spine_top_iw[3] spine_top_iw[4] 0.000345224
9 spine_top_iw[3] *130:8 0
10 *17:31 spine_top_iw[4] 5.10636e-05
*RES
1 *2507:X *130:8 44.6596 
2 *130:8 spine_top_iw[4] 17.6203 
*END

*D_NET *131 0.00277998
*CONN
*P spine_top_iw[5] O
*I *2508:X O *D sky130_fd_sc_hd__buf_8
*CAP
1 spine_top_iw[5] 0.000187328
2 *2508:X 0.000553513
3 *131:8 0.000740842
4 spine_top_iw[5] spine_top_iw[6] 0.000336705
5 *131:8 spine_top_iw[6] 0.00026339
6 *131:8 *194:19 0.000224336
7 *131:8 *203:220 0
8 spine_top_iw[3] *131:8 0
9 spine_top_iw[4] spine_top_iw[5] 0.000339309
10 *17:31 spine_top_iw[5] 2.64181e-05
11 *130:8 *131:8 0.000108137
*RES
1 *2508:X *131:8 48.5332 
2 *131:8 spine_top_iw[5] 17.4933 
*END

*D_NET *132 0.00442786
*CONN
*P spine_top_iw[6] O
*I *2509:X O *D sky130_fd_sc_hd__buf_8
*CAP
1 spine_top_iw[6] 0.00122735
2 *2509:X 0
3 *132:6 0.00122735
4 spine_top_iw[6] spine_top_iw[7] 0.000613141
5 spine_top_iw[6] *192:19 0
6 spine_top_iw[6] *193:12 0.00019783
7 spine_top_iw[6] *194:19 0.000400669
8 spine_top_iw[3] spine_top_iw[6] 0
9 spine_top_iw[4] spine_top_iw[6] 6.15953e-06
10 spine_top_iw[5] spine_top_iw[6] 0.000336705
11 *19:25 spine_top_iw[6] 0.000144687
12 *130:8 spine_top_iw[6] 1.05658e-05
13 *131:8 spine_top_iw[6] 0.00026339
*RES
1 *2509:X *132:6 38 
2 *132:6 spine_top_iw[6] 33.2466 
*END

*D_NET *133 0.00748817
*CONN
*P spine_top_iw[7] O
*I *2510:X O *D sky130_fd_sc_hd__buf_8
*CAP
1 spine_top_iw[7] 0.000734328
2 *2510:X 0
3 *133:12 0.00267795
4 *133:6 0.00194362
5 spine_top_iw[7] spine_top_iw[8] 0.000922692
6 *133:12 spine_top_iw[8] 0.000219712
7 *133:12 *134:8 0.000376727
8 *133:12 *195:17 0
9 *133:12 *196:19 0
10 *133:12 *200:19 0
11 spine_top_iw[6] spine_top_iw[7] 0.000613141
*RES
1 *2510:X *133:6 38 
2 *133:6 *133:12 43.5397 
3 *133:12 spine_top_iw[7] 11.9331 
*END

*D_NET *134 0.00628994
*CONN
*P spine_top_iw[8] O
*I *2511:X O *D sky130_fd_sc_hd__buf_8
*CAP
1 spine_top_iw[8] 0.00174486
2 *2511:X 0.000263379
3 *134:8 0.00200824
4 spine_top_iw[8] spine_top_iw[9] 2.63759e-05
5 spine_top_iw[8] *195:17 0.000129003
6 spine_top_iw[8] *200:19 0.000157385
7 *134:8 *200:19 0.000380346
8 spine_top_iw[10] spine_top_iw[8] 6.12168e-05
9 spine_top_iw[13] spine_top_iw[8] 0
10 spine_top_iw[7] spine_top_iw[8] 0.000922692
11 *133:12 spine_top_iw[8] 0.000219712
12 *133:12 *134:8 0.000376727
*RES
1 *2511:X *134:8 47.8289 
2 *134:8 spine_top_iw[8] 22.6565 
*END

*D_NET *135 0.00214308
*CONN
*P spine_top_iw[9] O
*I *2512:X O *D sky130_fd_sc_hd__buf_8
*CAP
1 spine_top_iw[9] 0.00100114
2 *2512:X 0
3 *135:6 0.00100114
4 spine_top_iw[9] *203:220 0
5 spine_top_iw[9] *205:10 8.28966e-05
6 spine_top_iw[10] spine_top_iw[9] 3.15154e-05
7 spine_top_iw[8] spine_top_iw[9] 2.63759e-05
8 *9:47 spine_top_iw[9] 0
9 *107:8 spine_top_iw[9] 0
10 *108:12 spine_top_iw[9] 0
11 *109:10 spine_top_iw[9] 0
*RES
1 *2512:X *135:6 38 
2 *135:6 spine_top_iw[9] 31.1547 
*END

*D_NET *136 0.000807534
*CONN
*P spine_top_ow[0] I
*I *2568:DIODE I *D sky130_fd_sc_hd__diode_2
*CAP
1 spine_top_ow[0] 0.000325423
2 *2568:DIODE 0
3 *136:15 0.000325423
4 *136:15 spine_top_ow[1] 0.000156688
5 spine_top_iw[29] *136:15 0
*RES
1 spine_top_ow[0] *136:15 34.1657 
2 *136:15 *2568:DIODE 23 
*END

*D_NET *137 0.00272573
*CONN
*P spine_top_ow[10] I
*I *2650:A I *D sky130_fd_sc_hd__inv_2
*I *2579:DIODE I *D sky130_fd_sc_hd__diode_2
*I *2418:Z O *D sky130_fd_sc_hd__ebufn_1
*CAP
1 spine_top_ow[10] 0.000493162
2 *2650:A 2.06225e-05
3 *2579:DIODE 0
4 *2418:Z 0.00050594
5 *137:42 0.000290557
6 *137:10 0.000729167
7 spine_top_ow[10] spine_top_ow[11] 0.000145934
8 spine_top_ow[10] spine_top_ow[9] 0.000147316
9 *2650:A *270:14 0.000100803
10 *137:10 *2396:A 4.06849e-05
11 *137:42 *2417:TE_B 4.65317e-05
12 *137:42 *161:36 0
13 *137:42 *170:216 9.75779e-05
14 *137:42 *171:171 4.21594e-06
15 *137:42 *171:182 4.90787e-05
16 *24:48 *2650:A 5.41385e-05
*RES
1 *2418:Z *137:10 42.06 
2 *137:10 *2579:DIODE 38 
3 *137:10 spine_top_ow[10] 18.4478 
4 *2418:Z *137:42 42.3086 
5 *137:42 *2650:A 39.0979 
*END

*D_NET *138 0.00197484
*CONN
*P spine_top_ow[11] I
*I *2580:DIODE I *D sky130_fd_sc_hd__diode_2
*I *2636:A I *D sky130_fd_sc_hd__inv_2
*I *2396:Z O *D sky130_fd_sc_hd__ebufn_1
*CAP
1 spine_top_ow[11] 0.000226981
2 *2580:DIODE 0
3 *2636:A 0.000232849
4 *2396:Z 0.000195787
5 *138:19 0.000381326
6 *138:8 0.000582981
7 spine_top_ow[11] spine_top_ow[12] 0.00012095
8 spine_top_ow[11] spine_top_ow[9] 4.98385e-06
9 *2636:A spine_top_ow[12] 0
10 *2636:A spine_top_ow[7] 0
11 *2636:A *139:8 0
12 *2636:A *159:8 0
13 *2636:A *292:10 8.05936e-05
14 *138:8 *2396:TE_B 2.45549e-06
15 *138:19 spine_top_ow[12] 0
16 spine_top_ow[10] spine_top_ow[11] 0.000145934
17 *23:55 *2636:A 0
*RES
1 *2396:Z *138:8 40.5271 
2 *138:8 *2636:A 42.0186 
3 *138:8 *138:19 2.96214 
4 *138:19 *2580:DIODE 38 
5 *138:19 spine_top_ow[11] 17.2693 
*END

*D_NET *139 0.00147239
*CONN
*P spine_top_ow[12] I
*I *2637:A I *D sky130_fd_sc_hd__inv_2
*I *2581:DIODE I *D sky130_fd_sc_hd__diode_2
*I *2397:Z O *D sky130_fd_sc_hd__ebufn_1
*CAP
1 spine_top_ow[12] 0.000302744
2 *2637:A 3.60242e-05
3 *2581:DIODE 0
4 *2397:Z 0.000199319
5 *139:8 0.000466039
6 spine_top_ow[12] spine_top_ow[13] 0.000124702
7 *2637:A *170:70 0.000141052
8 *139:8 *140:21 0
9 spine_top_ow[11] spine_top_ow[12] 0.00012095
10 *2636:A spine_top_ow[12] 0
11 *2636:A *139:8 0
12 *23:55 *139:8 4.21594e-06
13 *24:48 *2637:A 7.73389e-05
14 *138:19 spine_top_ow[12] 0
*RES
1 *2397:Z *139:8 40.9621 
2 *139:8 *2581:DIODE 38 
3 *139:8 spine_top_ow[12] 19.8289 
4 *2397:Z *2637:A 47.5743 
*END

*D_NET *140 0.00223692
*CONN
*P spine_top_ow[13] I
*I *2582:DIODE I *D sky130_fd_sc_hd__diode_2
*I *2638:A I *D sky130_fd_sc_hd__inv_2
*I *2398:Z O *D sky130_fd_sc_hd__ebufn_1
*CAP
1 spine_top_ow[13] 0.000231781
2 *2582:DIODE 0
3 *2638:A 0.000276833
4 *2398:Z 6.94194e-05
5 *140:21 0.00039287
6 *140:8 0.000507341
7 spine_top_ow[13] spine_top_ow[14] 0.000249875
8 spine_top_ow[13] spine_top_ow[9] 0
9 spine_top_ow[13] *256:18 0
10 *2638:A *238:74 0.00014196
11 *2638:A *253:10 0
12 spine_top_ow[12] spine_top_ow[13] 0.000124702
13 *23:49 *2638:A 0.000143655
14 *23:55 *2638:A 0
15 *24:48 *140:8 9.84794e-05
16 *139:8 *140:21 0
*RES
1 *2398:Z *140:8 39.0979 
2 *140:8 *2638:A 43.2407 
3 *140:8 *140:21 2.96214 
4 *140:21 *2582:DIODE 38 
5 *140:21 spine_top_ow[13] 17.4336 
*END

*D_NET *141 0.00383521
*CONN
*P spine_top_ow[14] I
*I *2639:A I *D sky130_fd_sc_hd__inv_2
*I *2584:DIODE I *D sky130_fd_sc_hd__diode_2
*I *2399:Z O *D sky130_fd_sc_hd__ebufn_1
*CAP
1 spine_top_ow[14] 0.00116455
2 *2639:A 2.79004e-05
3 *2584:DIODE 0.000442756
4 *2399:Z 0
5 *141:6 0.00157941
6 spine_top_ow[14] spine_top_ow[15] 0.00021552
7 spine_top_ow[14] spine_top_ow[19] 0
8 spine_top_ow[14] *239:12 0
9 *2584:DIODE *239:12 0
10 *2584:DIODE *273:14 0
11 *2584:DIODE *308:10 0.00010018
12 *2639:A *308:10 5.50106e-05
13 spine_top_ow[13] spine_top_ow[14] 0.000249875
*RES
1 *2399:Z *141:6 38 
2 *141:6 *2584:DIODE 44.8771 
3 *141:6 spine_top_ow[14] 20.48 
4 *2584:DIODE *2639:A 46.6214 
*END

*D_NET *142 0.00371747
*CONN
*P spine_top_ow[15] I
*I *2585:DIODE I *D sky130_fd_sc_hd__diode_2
*I *2640:A I *D sky130_fd_sc_hd__inv_2
*I *2400:Z O *D sky130_fd_sc_hd__ebufn_1
*CAP
1 spine_top_ow[15] 0.000777009
2 *2585:DIODE 0
3 *2640:A 3.7908e-05
4 *2400:Z 0.000238561
5 *142:22 0.000977662
6 spine_top_ow[15] spine_top_ow[16] 0.000799577
7 spine_top_ow[15] spine_top_ow[17] 9.70658e-05
8 spine_top_ow[15] spine_top_ow[18] 4.62843e-05
9 spine_top_ow[15] spine_top_ow[19] 4.59554e-06
10 spine_top_ow[15] spine_top_ow[20] 1.61542e-05
11 spine_top_ow[15] *148:21 1.95685e-05
12 spine_top_ow[15] *256:18 0
13 *2640:A *170:82 0.000142634
14 *2640:A *171:80 7.72342e-05
15 *142:22 *2409:TE_B 0
16 *142:22 *148:21 2.72055e-05
17 *142:22 *171:80 0.000101762
18 *142:22 *171:86 0.000138727
19 spine_top_ow[14] spine_top_ow[15] 0.00021552
*RES
1 *2400:Z *2640:A 47.5743 
2 *2400:Z *142:22 42.06 
3 *142:22 *2585:DIODE 38 
4 *142:22 spine_top_ow[15] 19.9 
*END

*D_NET *143 0.00359034
*CONN
*P spine_top_ow[16] I
*I *2586:DIODE I *D sky130_fd_sc_hd__diode_2
*I *2641:A I *D sky130_fd_sc_hd__inv_2
*I *2401:Z O *D sky130_fd_sc_hd__ebufn_1
*CAP
1 spine_top_ow[16] 0.000425954
2 *2586:DIODE 0.000494523
3 *2641:A 0
4 *2401:Z 0.000126217
5 *143:33 0.000857735
6 *143:10 6.27429e-05
7 *143:8 0.000126217
8 spine_top_ow[16] spine_top_ow[17] 0.000183534
9 *2586:DIODE *2409:TE_B 0.000143874
10 *143:8 *2409:TE_B 0
11 *143:8 *171:64 1.19727e-05
12 *143:8 *269:8 8.85189e-05
13 *143:8 *285:10 0
14 *143:33 spine_top_ow[18] 0
15 *143:33 *2409:TE_B 6.17437e-06
16 *143:33 *148:21 7.16389e-05
17 *143:33 *170:172 2.64616e-05
18 *143:33 *309:14 0.000165197
19 spine_top_ow[15] spine_top_ow[16] 0.000799577
*RES
1 *2401:Z *143:8 40.2579 
2 *143:8 *143:10 15 
3 *143:10 *2641:A 23 
4 *143:10 *2586:DIODE 24.5743 
5 *2586:DIODE *143:33 45.9439 
6 *143:33 spine_top_ow[16] 17.9749 
*END

*D_NET *144 0.00194674
*CONN
*P spine_top_ow[17] I
*I *2587:DIODE I *D sky130_fd_sc_hd__diode_2
*I *2617:A I *D sky130_fd_sc_hd__buf_2
*I *2402:Z O *D sky130_fd_sc_hd__ebufn_1
*CAP
1 spine_top_ow[17] 0.000258209
2 *2587:DIODE 0
3 *2617:A 2.53239e-05
4 *2402:Z 0.000246618
5 *144:22 0.000479504
6 spine_top_ow[17] spine_top_ow[18] 0.000233212
7 *2617:A *170:76 0.00014196
8 *2617:A *171:106 0.00014196
9 *144:22 *254:8 4.08641e-05
10 spine_top_ow[15] spine_top_ow[17] 9.70658e-05
11 spine_top_ow[16] spine_top_ow[17] 0.000183534
12 *24:48 *144:22 9.84851e-05
*RES
1 *2402:Z *2617:A 47.5743 
2 *2402:Z *144:22 42.06 
3 *144:22 *2587:DIODE 38 
4 *144:22 spine_top_ow[17] 17.5195 
*END

*D_NET *145 0.00123909
*CONN
*P spine_top_ow[18] I
*I *2618:A I *D sky130_fd_sc_hd__buf_2
*I *2588:DIODE I *D sky130_fd_sc_hd__diode_2
*I *2403:Z O *D sky130_fd_sc_hd__ebufn_1
*CAP
1 spine_top_ow[18] 0.00022333
2 *2618:A 5.61432e-05
3 *2588:DIODE 5.61432e-05
4 *2403:Z 8.18334e-05
5 *145:6 0.000305164
6 spine_top_ow[18] spine_top_ow[19] 0.000236979
7 spine_top_ow[15] spine_top_ow[18] 4.62843e-05
8 spine_top_ow[17] spine_top_ow[18] 0.000233212
9 *143:33 spine_top_ow[18] 0
*RES
1 *2403:Z *145:6 24.0979 
2 *145:6 spine_top_ow[18] 32.4336 
3 *145:6 *2588:DIODE 23 
4 *2588:DIODE *2618:A 47.0979 
*END

*D_NET *146 0.00338944
*CONN
*P spine_top_ow[19] I
*I *2589:DIODE I *D sky130_fd_sc_hd__diode_2
*I *2604:A I *D sky130_fd_sc_hd__buf_2
*I *2404:Z O *D sky130_fd_sc_hd__ebufn_1
*CAP
1 spine_top_ow[19] 0.000417395
2 *2589:DIODE 0
3 *2604:A 0.000107023
4 *2404:Z 0.000117336
5 *146:19 0.000834082
6 *146:8 0.000641046
7 spine_top_ow[19] spine_top_ow[20] 0.00012095
8 spine_top_ow[19] spine_top_ow[21] 5.20595e-05
9 spine_top_ow[19] *309:14 1.3247e-05
10 *2604:A *305:12 0.000226306
11 *146:8 *2605:A 2.76611e-06
12 *146:8 *148:21 5.26204e-05
13 *146:8 *238:124 0
14 *146:19 *148:21 6.04233e-05
15 *146:19 *238:122 0
16 *146:19 *238:124 0
17 *146:19 *246:12 0
18 *146:19 *254:8 0
19 *146:19 *256:10 0
20 *146:19 *309:14 0.000502613
21 spine_top_ow[14] spine_top_ow[19] 0
22 spine_top_ow[15] spine_top_ow[19] 4.59554e-06
23 spine_top_ow[18] spine_top_ow[19] 0.000236979
24 *24:36 *146:19 0
*RES
1 *2404:Z *146:8 40.2579 
2 *146:8 *2604:A 40.5271 
3 *146:8 *146:19 9.30071 
4 *146:19 *2589:DIODE 38 
5 *146:19 spine_top_ow[19] 17.9413 
*END

*D_NET *147 0.00392615
*CONN
*P spine_top_ow[1] I
*I *2569:DIODE I *D sky130_fd_sc_hd__diode_2
*I *2681:A I *D sky130_fd_sc_hd__inv_2
*I *2395:Z O *D sky130_fd_sc_hd__ebufn_1
*CAP
1 spine_top_ow[1] 0.000926115
2 *2569:DIODE 0
3 *2681:A 0.000179069
4 *2395:Z 7.82071e-05
5 *147:19 0.00106597
6 *147:8 0.000397132
7 spine_top_ow[1] spine_top_ow[2] 0.000246123
8 spine_top_ow[1] spine_top_ow[3] 2.04312e-05
9 spine_top_ow[1] *2406:TE_B 0.000106757
10 spine_top_ow[1] *154:14 0.000553992
11 spine_top_ow[1] *256:18 0
12 *2681:A *170:10 6.28695e-05
13 *2681:A *170:19 3.4932e-05
14 *2681:A *238:224 0
15 *147:8 *258:6 2.7237e-05
16 *147:19 *2406:TE_B 2.89463e-05
17 *147:19 *170:19 4.16764e-05
18 *136:15 spine_top_ow[1] 0.000156688
*RES
1 *2395:Z *147:8 39.0979 
2 *147:8 *2681:A 42.0186 
3 *147:8 *147:19 2.96214 
4 *147:19 *2569:DIODE 38 
5 *147:19 spine_top_ow[1] 29.8731 
*END

*D_NET *148 0.00378025
*CONN
*P spine_top_ow[20] I
*I *2590:DIODE I *D sky130_fd_sc_hd__diode_2
*I *2605:A I *D sky130_fd_sc_hd__buf_2
*I *2405:Z O *D sky130_fd_sc_hd__ebufn_1
*CAP
1 spine_top_ow[20] 0.000117225
2 *2590:DIODE 0
3 *2605:A 0.000215897
4 *2405:Z 0.000101875
5 *148:21 0.000865725
6 *148:8 0.00106627
7 spine_top_ow[20] spine_top_ow[21] 0.000124702
8 *2605:A *171:21 7.91596e-05
9 *2605:A *171:132 9.84851e-05
10 *2605:A *238:124 0
11 *2605:A *238:126 0
12 *2605:A *238:141 0.00010018
13 *148:8 *2404:TE_B 7.88828e-05
14 *148:21 *170:88 0
15 *148:21 *170:172 0.000244526
16 *148:21 *171:86 8.16459e-05
17 *148:21 *268:8 4.55681e-05
18 *148:21 *309:14 0.000188775
19 spine_top_ow[15] spine_top_ow[20] 1.61542e-05
20 spine_top_ow[15] *148:21 1.95685e-05
21 spine_top_ow[19] spine_top_ow[20] 0.00012095
22 *142:22 *148:21 2.72055e-05
23 *143:33 *148:21 7.16389e-05
24 *146:8 *2605:A 2.76611e-06
25 *146:8 *148:21 5.26204e-05
26 *146:19 *148:21 6.04233e-05
*RES
1 *2405:Z *148:8 39.5743 
2 *148:8 *2605:A 42.7643 
3 *148:8 *148:21 17.0479 
4 *148:21 *2590:DIODE 38 
5 *148:21 spine_top_ow[20] 16.9259 
*END

*D_NET *149 0.00405867
*CONN
*P spine_top_ow[21] I
*I *2591:DIODE I *D sky130_fd_sc_hd__diode_2
*I *2606:A I *D sky130_fd_sc_hd__buf_2
*I *2407:Z O *D sky130_fd_sc_hd__ebufn_1
*CAP
1 spine_top_ow[21] 0.00150059
2 *2591:DIODE 0
3 *2606:A 2.3577e-05
4 *2407:Z 0.000163411
5 *149:24 0.00156588
6 *149:8 0.000121699
7 spine_top_ow[21] spine_top_ow[22] 0.00012095
8 spine_top_ow[21] spine_top_ow[23] 3.76146e-05
9 spine_top_ow[21] spine_top_ow[24] 0
10 spine_top_ow[21] *2407:TE_B 0
11 *2606:A *303:16 5.50106e-05
12 *2606:A *307:12 2.64616e-05
13 *149:8 *275:12 0.000166532
14 *149:24 *171:15 0.00010018
15 spine_top_ow[19] spine_top_ow[21] 5.20595e-05
16 spine_top_ow[20] spine_top_ow[21] 0.000124702
*RES
1 *2407:Z *149:8 40.2579 
2 *149:8 *2606:A 38.6214 
3 *2407:Z *149:24 24.0979 
4 *149:24 spine_top_ow[21] 35.8235 
5 *149:24 *2591:DIODE 23 
*END

*D_NET *150 0.00296506
*CONN
*P spine_top_ow[22] I
*I *2592:DIODE I *D sky130_fd_sc_hd__diode_2
*I *2607:A I *D sky130_fd_sc_hd__buf_2
*I *2408:Z O *D sky130_fd_sc_hd__ebufn_1
*CAP
1 spine_top_ow[22] 6.29507e-05
2 *2592:DIODE 0.000747004
3 *2607:A 0
4 *2408:Z 0.000252384
5 *150:39 0.000456635
6 *150:8 0.000605704
7 spine_top_ow[22] spine_top_ow[23] 0.00012095
8 *2592:DIODE *151:17 0.000154147
9 *2592:DIODE *151:35 1.34542e-05
10 *2592:DIODE *285:10 0
11 *2592:DIODE *285:14 7.88926e-05
12 *150:8 *151:17 0.000342134
13 *150:8 *276:16 0
14 *150:8 *285:10 0
15 *150:39 *151:35 0
16 *150:39 *153:15 9.85586e-06
17 spine_top_ow[21] spine_top_ow[22] 0.00012095
*RES
1 *2408:Z *150:8 42.7229 
2 *150:8 *2607:A 38 
3 *150:8 *2592:DIODE 44.6493 
4 *2592:DIODE *150:39 47.2787 
5 *150:39 spine_top_ow[22] 8.50587 
*END

*D_NET *151 0.00354159
*CONN
*P spine_top_ow[23] I
*I *2608:A I *D sky130_fd_sc_hd__buf_2
*I *2593:DIODE I *D sky130_fd_sc_hd__diode_2
*I *2409:Z O *D sky130_fd_sc_hd__ebufn_1
*CAP
1 spine_top_ow[23] 0.000205188
2 *2608:A 0
3 *2593:DIODE 5.80982e-05
4 *2409:Z 0.000397035
5 *151:35 0.000602224
6 *151:17 0.000318725
7 *151:4 0.000376823
8 spine_top_ow[23] spine_top_ow[24] 0.000301575
9 *2593:DIODE *309:20 1.05235e-05
10 *151:17 spine_top_ow[24] 1.88491e-05
11 *151:17 *276:16 0
12 *151:35 *153:15 0
13 *151:35 *285:10 6.10551e-06
14 spine_top_ow[21] spine_top_ow[23] 3.76146e-05
15 spine_top_ow[22] spine_top_ow[23] 0.00012095
16 *2592:DIODE *151:17 0.000154147
17 *2592:DIODE *151:35 1.34542e-05
18 *23:13 *151:17 0.000411634
19 *23:15 *151:17 0.000166513
20 *150:8 *151:17 0.000342134
21 *150:39 *151:35 0
*RES
1 *2409:Z *151:4 23 
2 *151:4 *2593:DIODE 23.6214 
3 *151:4 *151:17 37.8921 
4 *151:17 *2608:A 23 
5 *2409:Z *151:35 47.1069 
6 *151:35 spine_top_ow[23] 9.26747 
*END

*D_NET *152 0.00320602
*CONN
*P spine_top_ow[24] I
*I *2595:DIODE I *D sky130_fd_sc_hd__diode_2
*I *2609:A I *D sky130_fd_sc_hd__buf_2
*I *2410:Z O *D sky130_fd_sc_hd__ebufn_1
*CAP
1 spine_top_ow[24] 0.00116689
2 *2595:DIODE 0
3 *2609:A 2.79004e-05
4 *2410:Z 0.000187924
5 *152:20 0.00132692
6 spine_top_ow[24] *153:15 0.00012095
7 spine_top_ow[24] *276:16 0
8 *2609:A *306:24 5.50106e-05
9 *152:20 *276:16 0
10 pad_uio_oe_n[4] spine_top_ow[24] 0
11 spine_top_ow[21] spine_top_ow[24] 0
12 spine_top_ow[23] spine_top_ow[24] 0.000301575
13 *23:15 spine_top_ow[24] 0
14 *23:15 *152:20 0
15 *151:17 spine_top_ow[24] 1.88491e-05
*RES
1 *2410:Z *2609:A 46.6214 
2 *2410:Z *152:20 40.9621 
3 *152:20 *2595:DIODE 38 
4 *152:20 spine_top_ow[24] 21.5401 
*END

*D_NET *153 0.000465792
*CONN
*P spine_top_ow[25] I
*I *2596:DIODE I *D sky130_fd_sc_hd__diode_2
*CAP
1 spine_top_ow[25] 0.000167493
2 *2596:DIODE 0
3 *153:15 0.000167493
4 pad_uio_oe_n[4] *153:15 0
5 spine_top_ow[24] *153:15 0.00012095
6 *150:39 *153:15 9.85586e-06
7 *151:35 *153:15 0
*RES
1 spine_top_ow[25] *153:15 31.9259 
2 *153:15 *2596:DIODE 23 
*END

*D_NET *154 0.00281714
*CONN
*P spine_top_ow[2] I
*I *2682:A I *D sky130_fd_sc_hd__inv_2
*I *2570:DIODE I *D sky130_fd_sc_hd__diode_2
*I *2406:Z O *D sky130_fd_sc_hd__ebufn_1
*CAP
1 spine_top_ow[2] 9.91904e-05
2 *2682:A 1.85548e-05
3 *2570:DIODE 8.73167e-05
4 *2406:Z 0
5 *154:39 0.000186507
6 *154:14 0.000561885
7 *154:4 0.00058044
8 spine_top_ow[2] spine_top_ow[3] 0.000249875
9 *2682:A *302:10 4.40995e-05
10 *154:14 *2406:TE_B 4.6318e-06
11 *154:14 *238:267 0
12 *154:14 *302:10 0.000184527
13 *154:39 *256:18 0
14 spine_top_ow[1] spine_top_ow[2] 0.000246123
15 spine_top_ow[1] *154:14 0.000553992
*RES
1 *2406:Z *154:4 23 
2 *154:4 *154:14 41.0407 
3 *154:14 *2570:DIODE 23 
4 *154:4 *2682:A 23.6214 
5 *2570:DIODE *154:39 46.5059 
6 *154:39 spine_top_ow[2] 9.0136 
*END

*D_NET *155 0.00353029
*CONN
*P spine_top_ow[3] I
*I *2571:DIODE I *D sky130_fd_sc_hd__diode_2
*I *2668:A I *D sky130_fd_sc_hd__inv_2
*I *2411:Z O *D sky130_fd_sc_hd__ebufn_1
*CAP
1 spine_top_ow[3] 0.000654752
2 *2571:DIODE 6.48508e-05
3 *2668:A 0
4 *2411:Z 0.000178905
5 *155:12 6.48508e-05
6 *155:10 0.000833657
7 spine_top_ow[3] spine_top_ow[4] 0.000625473
8 spine_top_ow[3] *238:248 0.000163361
9 spine_top_ow[3] *238:267 6.68498e-05
10 spine_top_ow[3] *255:18 4.5093e-05
11 spine_top_ow[3] *294:10 7.80354e-05
12 *2571:DIODE *283:16 9.41704e-05
13 *155:10 *238:248 0.000167443
14 *155:10 *257:6 0.000138444
15 *155:10 *294:10 8.41012e-05
16 spine_top_ow[1] spine_top_ow[3] 2.04312e-05
17 spine_top_ow[2] spine_top_ow[3] 0.000249875
*RES
1 *2411:Z *155:10 41.8321 
2 *155:10 *155:12 15 
3 *155:12 *2668:A 23 
4 *155:12 *2571:DIODE 24.0979 
5 *155:10 spine_top_ow[3] 22.0726 
*END

*D_NET *156 0.0038052
*CONN
*P spine_top_ow[4] I
*I *2573:DIODE I *D sky130_fd_sc_hd__diode_2
*I *2669:A I *D sky130_fd_sc_hd__inv_2
*I *2412:Z O *D sky130_fd_sc_hd__ebufn_1
*CAP
1 spine_top_ow[4] 0.00053884
2 *2573:DIODE 0
3 *2669:A 7.0663e-05
4 *2412:Z 0.00018061
5 *156:28 0.00066082
6 *156:8 0.000129293
7 spine_top_ow[4] spine_top_ow[5] 0.000625473
8 spine_top_ow[4] *255:18 2.42363e-05
9 spine_top_ow[4] *263:12 0.000171719
10 spine_top_ow[4] *294:10 3.81391e-05
11 *2669:A *2687:S 0.000141052
12 *156:8 *263:12 4.59027e-05
13 *156:8 *305:8 0.000141888
14 *156:28 *257:6 5.50106e-05
15 *156:28 *263:12 0.000222113
16 *156:28 *288:10 8.62876e-05
17 *156:28 *294:10 4.76829e-05
18 spine_top_ow[3] spine_top_ow[4] 0.000625473
*RES
1 *2412:Z *156:8 39.9057 
2 *156:8 *2669:A 39.5743 
3 *2412:Z *156:28 41.5836 
4 *156:28 *2573:DIODE 38 
5 *156:28 spine_top_ow[4] 21.2825 
*END

*D_NET *157 0.00366661
*CONN
*P spine_top_ow[5] I
*I *2574:DIODE I *D sky130_fd_sc_hd__diode_2
*I *2670:A I *D sky130_fd_sc_hd__inv_2
*I *2413:Z O *D sky130_fd_sc_hd__ebufn_1
*CAP
1 spine_top_ow[5] 0.000554196
2 *2574:DIODE 0
3 *2670:A 0.000250964
4 *2413:Z 0
5 *157:23 0.00066702
6 *157:6 0.000363788
7 spine_top_ow[5] spine_top_ow[6] 0.000621116
8 spine_top_ow[5] *255:18 2.74535e-05
9 spine_top_ow[5] *263:12 0
10 spine_top_ow[5] *270:14 5.52483e-05
11 *2670:A *2687:S 0.000141052
12 *2670:A *270:14 9.06719e-05
13 *2670:A *305:8 0.00013139
14 *157:23 *263:12 0
15 *157:23 *270:14 6.78567e-05
16 *157:23 *305:8 7.03766e-05
17 spine_top_ow[4] spine_top_ow[5] 0.000625473
*RES
1 *2413:Z *157:6 38 
2 *157:6 *2670:A 44.0071 
3 *157:6 *157:23 2.96214 
4 *157:23 *2574:DIODE 38 
5 *157:23 spine_top_ow[5] 21.2825 
*END

*D_NET *158 0.00479322
*CONN
*P spine_top_ow[6] I
*I *2671:A I *D sky130_fd_sc_hd__inv_2
*I *2575:DIODE I *D sky130_fd_sc_hd__diode_2
*I *2414:Z O *D sky130_fd_sc_hd__ebufn_1
*CAP
1 spine_top_ow[6] 0.000887868
2 *2671:A 1.97948e-05
3 *2575:DIODE 0.00028595
4 *2414:Z 0
5 *158:6 0.00115402
6 spine_top_ow[6] spine_top_ow[7] 0.000265212
7 spine_top_ow[6] spine_top_ow[8] 1.05631e-05
8 spine_top_ow[6] *170:62 0.000384106
9 spine_top_ow[6] *171:171 0.000392912
10 spine_top_ow[6] *255:18 5.55204e-05
11 *2575:DIODE *170:48 0.000192087
12 *2575:DIODE *170:62 8.62876e-05
13 *2575:DIODE *171:171 6.16531e-05
14 *2575:DIODE *270:14 0.000128661
15 *2575:DIODE *297:10 6.18235e-05
16 *2575:DIODE *303:16 5.70419e-05
17 *2575:DIODE *306:10 5.41288e-05
18 *2671:A *303:16 5.50049e-05
19 *2671:A *306:10 1.94693e-05
20 spine_top_ow[5] spine_top_ow[6] 0.000621116
*RES
1 *2414:Z *158:6 38 
2 *158:6 *2575:DIODE 45.5814 
3 *158:6 spine_top_ow[6] 24.2713 
4 *2575:DIODE *2671:A 46.6214 
*END

*D_NET *159 0.00237853
*CONN
*P spine_top_ow[7] I
*I *2672:A I *D sky130_fd_sc_hd__inv_2
*I *2576:DIODE I *D sky130_fd_sc_hd__diode_2
*I *2415:Z O *D sky130_fd_sc_hd__ebufn_1
*CAP
1 spine_top_ow[7] 0.000361958
2 *2672:A 0
3 *2576:DIODE 2.95294e-05
4 *2415:Z 0.000289968
5 *159:19 0.000410016
6 *159:10 7.75873e-05
7 *159:8 0.000289968
8 spine_top_ow[7] spine_top_ow[8] 0.000268034
9 spine_top_ow[7] spine_top_ow[9] 0.000183901
10 spine_top_ow[7] *256:18 0
11 *2576:DIODE *2396:A 5.50049e-05
12 *159:8 spine_top_ow[8] 5.97175e-05
13 *159:8 *170:62 0
14 *159:8 *170:203 0
15 *159:19 *2396:A 8.76309e-05
16 spine_top_ow[6] spine_top_ow[7] 0.000265212
17 *2636:A spine_top_ow[7] 0
18 *2636:A *159:8 0
*RES
1 *2415:Z *159:8 42.0186 
2 *159:8 *159:10 15 
3 *159:10 *2576:DIODE 23.6214 
4 *159:10 *159:19 1.09786 
5 *159:19 spine_top_ow[7] 32.8181 
6 *159:19 *2672:A 23 
*END

*D_NET *160 0.0127113
*CONN
*P spine_top_ow[8] I
*I *2577:DIODE I *D sky130_fd_sc_hd__diode_2
*I *2673:A I *D sky130_fd_sc_hd__inv_2
*I *2416:Z O *D sky130_fd_sc_hd__ebufn_1
*CAP
1 spine_top_ow[8] 0.00105245
2 *2577:DIODE 0.000161268
3 *2673:A 0.000180084
4 *2416:Z 0.000126887
5 *160:39 0.00112942
6 *160:10 0.0027732
7 *160:8 0.00248177
8 spine_top_ow[8] spine_top_ow[9] 0.000300458
9 spine_top_ow[8] *170:62 0
10 spine_top_ow[8] *238:32 0.000241847
11 spine_top_ow[8] *238:45 4.24694e-06
12 spine_top_ow[8] *256:18 0
13 spine_top_ow[8] *271:14 0.000366716
14 spine_top_ow[8] *292:10 0.000609006
15 *160:8 *258:6 5.3304e-05
16 *160:10 *271:14 0
17 *160:10 *272:10 0.000724977
18 *160:10 *273:14 0
19 *160:39 *171:156 5.41385e-05
20 spine_top_ow[6] spine_top_ow[8] 1.05631e-05
21 spine_top_ow[7] spine_top_ow[8] 0.000268034
22 *2644:A *160:10 0.000182203
23 *81:22 *2673:A 0
24 *81:22 *160:10 0
25 *81:39 *160:10 0
26 *82:24 *2673:A 0.000146634
27 *82:24 *160:10 0.00172998
28 *83:29 *160:10 5.44006e-05
29 *159:8 spine_top_ow[8] 5.97175e-05
*RES
1 *2416:Z *160:8 38.6214 
2 *160:8 *160:10 63.1786 
3 *160:10 *2673:A 42.2879 
4 *160:10 *2577:DIODE 40.0507 
5 *2416:Z *160:39 39.0979 
6 *160:39 spine_top_ow[8] 32.9479 
*END

*D_NET *161 0.00321516
*CONN
*P spine_top_ow[9] I
*I *2649:A I *D sky130_fd_sc_hd__inv_2
*I *2578:DIODE I *D sky130_fd_sc_hd__diode_2
*I *2417:Z O *D sky130_fd_sc_hd__ebufn_1
*CAP
1 spine_top_ow[9] 0.000656392
2 *2649:A 8.86396e-05
3 *2578:DIODE 0
4 *2417:Z 0.000210848
5 *161:36 0.000230268
6 *161:6 0.000725612
7 spine_top_ow[9] *256:18 0
8 *2649:A *270:14 0.000186442
9 *2649:A *277:10 7.14736e-05
10 *2649:A *280:6 9.21099e-05
11 *161:6 *2417:A 5.70006e-05
12 *161:36 *238:275 3.70187e-05
13 spine_top_ow[10] spine_top_ow[9] 0.000147316
14 spine_top_ow[11] spine_top_ow[9] 4.98385e-06
15 spine_top_ow[13] spine_top_ow[9] 0
16 spine_top_ow[7] spine_top_ow[9] 0.000183901
17 spine_top_ow[8] spine_top_ow[9] 0.000300458
18 *24:48 *2649:A 0.000222697
19 *137:42 *161:36 0
*RES
1 *2417:Z *161:6 24.0979 
2 *161:6 spine_top_ow[9] 33.5499 
3 *161:6 *2578:DIODE 23 
4 *2417:Z *161:36 40.2579 
5 *161:36 *2649:A 42.4329 
*END

*D_NET *162 0.00312744
*CONN
*I *2544:B I *D sky130_fd_sc_hd__and2_2
*I *2547:B I *D sky130_fd_sc_hd__and2_2
*I *2365:X O *D sky130_fd_sc_hd__buf_2
*CAP
1 *2544:B 0.000204153
2 *2547:B 0
3 *2365:X 0.000287844
4 *162:20 0.000367513
5 *162:12 0.000772804
6 *162:8 0.000488982
7 *2544:B *2544:A 8.17546e-05
8 *2544:B *236:10 1.9248e-05
9 *162:8 *238:291 0
10 *162:20 *2546:A 4.34173e-05
11 *162:20 *2547:A 8.40914e-05
12 *162:20 *237:8 6.17437e-06
13 *162:20 *237:10 0
14 *162:20 *238:12 0
15 *162:20 *238:291 0.000139657
16 *98:26 *162:8 0.000631804
*RES
1 *2365:X *162:8 46.2443 
2 *162:8 *162:12 18.0036 
3 *162:12 *162:20 37.9543 
4 *162:20 *2547:B 23 
5 *162:12 *2544:B 26.9771 
*END

*D_NET *163 0.00566353
*CONN
*I *2534:CLK I *D sky130_fd_sc_hd__dfrbp_2
*I *2366:X O *D sky130_fd_sc_hd__buf_2
*CAP
1 *2534:CLK 0.00013584
2 *2366:X 0
3 *163:8 0.00189109
4 *163:4 0.00175525
5 *163:8 *2435:B 3.53115e-05
6 *163:8 *164:8 5.5614e-05
7 *2427:A *2534:CLK 3.22467e-05
8 *5:35 *163:8 0.000235278
9 *12:19 *2534:CLK 2.64616e-05
10 *14:23 *163:8 0.000114879
11 *15:17 *163:8 0.00122101
12 *53:8 *2534:CLK 0.000160554
*RES
1 *2366:X *163:4 23 
2 *163:4 *163:8 49.9243 
3 *163:8 *2534:CLK 40.8793 
*END

*D_NET *164 0.0127823
*CONN
*I *2537:RESET_B I *D sky130_fd_sc_hd__dfrbp_2
*I *2536:RESET_B I *D sky130_fd_sc_hd__dfrbp_2
*I *2535:RESET_B I *D sky130_fd_sc_hd__dfrbp_2
*I *2534:RESET_B I *D sky130_fd_sc_hd__dfrbp_2
*I *2542:RESET_B I *D sky130_fd_sc_hd__dfrbp_2
*I *2543:RESET_B I *D sky130_fd_sc_hd__dfrbp_2
*I *2538:RESET_B I *D sky130_fd_sc_hd__dfrbp_2
*I *2541:RESET_B I *D sky130_fd_sc_hd__dfrbp_2
*I *2540:RESET_B I *D sky130_fd_sc_hd__dfrbp_2
*I *2539:RESET_B I *D sky130_fd_sc_hd__dfrbp_2
*I *2367:X O *D sky130_fd_sc_hd__buf_2
*CAP
1 *2537:RESET_B 0
2 *2536:RESET_B 0
3 *2535:RESET_B 0
4 *2534:RESET_B 0.000308875
5 *2542:RESET_B 0.000220148
6 *2543:RESET_B 0
7 *2538:RESET_B 0.000694476
8 *2541:RESET_B 0.000213405
9 *2540:RESET_B 0.000761665
10 *2539:RESET_B 0.0014899
11 *2367:X 0.000132129
12 *164:93 0.000515168
13 *164:91 0.000489942
14 *164:89 0.000623094
15 *164:64 0.000455125
16 *164:52 0.00079001
17 *164:39 0.000594539
18 *164:8 0.0010415
19 *2534:RESET_B *173:118 0.000162954
20 *2534:RESET_B *173:120 0.000235542
21 *2534:RESET_B *174:8 0
22 *2534:RESET_B *224:8 8.79516e-05
23 *2538:RESET_B *2463:A 5.25997e-05
24 *2538:RESET_B *227:26 0.000141954
25 *2538:RESET_B *228:8 9.98797e-05
26 *2539:RESET_B *186:10 0
27 *2539:RESET_B *187:10 7.28526e-05
28 *2539:RESET_B *188:10 0.000130999
29 *2539:RESET_B *229:8 5.03716e-05
30 *2540:RESET_B *2539:CLK 0.000103637
31 *2540:RESET_B *2539:D 2.4754e-05
32 *2540:RESET_B *229:8 0.000102783
33 *2540:RESET_B *229:14 0
34 *2541:RESET_B *232:21 0
35 *2542:RESET_B *2464:A 0.00015192
36 *2542:RESET_B *233:8 5.03619e-05
37 *2542:RESET_B *233:21 0
38 *164:39 *197:6 0.000361027
39 *164:39 *231:8 0.000152291
40 *164:52 *197:6 0.000563467
41 *164:64 *2463:A 7.76364e-06
42 *164:64 *2464:A 0.000209903
43 *164:89 *2461:A 7.03663e-05
44 *164:89 *195:17 0
45 *164:89 *196:8 6.17437e-06
46 *164:89 *196:19 2.60152e-05
47 *164:89 *228:8 0.000219685
48 *164:91 *2460:A 0
49 *164:91 *173:118 0.000263089
50 *164:91 *195:17 0
51 *164:93 *173:118 0.000428951
52 spine_bot_iw[10] *2538:RESET_B 0
53 spine_bot_iw[6] *2534:RESET_B 0
54 spine_bot_iw[6] *164:91 0
55 spine_bot_iw[6] *164:93 0
56 spine_bot_iw[7] *164:89 9.69381e-05
57 spine_bot_iw[7] *164:91 7.93302e-05
58 spine_bot_iw[8] *164:89 7.23925e-05
59 *2427:A *2534:RESET_B 4.65845e-05
60 *14:34 *2540:RESET_B 0
61 *22:44 *2539:RESET_B 0
62 *65:10 *2539:RESET_B 0
63 *66:12 *2539:RESET_B 0
64 *67:8 *2539:RESET_B 0.000324139
65 *163:8 *164:8 5.5614e-05
*RES
1 *2367:X *164:8 40.0507 
2 *164:8 *2539:RESET_B 34.4818 
3 *2539:RESET_B *2540:RESET_B 41.5689 
4 *2540:RESET_B *164:39 5.78964 
5 *164:39 *2541:RESET_B 34.0186 
6 *164:39 *164:52 21.3386 
7 *164:52 *2538:RESET_B 22.7575 
8 *164:52 *164:64 5.77929 
9 *164:64 *2543:RESET_B 15 
10 *164:64 *2542:RESET_B 20.0439 
11 *2538:RESET_B *164:89 23.2339 
12 *164:89 *164:91 6.13143 
13 *164:91 *164:93 5.77929 
14 *164:93 *2534:RESET_B 21.4525 
15 *164:93 *2535:RESET_B 15 
16 *164:91 *2536:RESET_B 15 
17 *164:89 *2537:RESET_B 15 
*END

*D_NET *165 0.000177733
*CONN
*I *2368:A I *D sky130_fd_sc_hd__bufinv_8
*I *2360:Y O *D sky130_fd_sc_hd__inv_2
*CAP
1 *2368:A 3.79848e-05
2 *2360:Y 3.79848e-05
3 *24:68 *2368:A 0.000101764
*RES
1 *2360:Y *2368:A 47.0979 
*END

*D_NET *166 0.0165683
*CONN
*I *2380:TE_B I *D sky130_fd_sc_hd__ebufn_1
*I *2391:TE_B I *D sky130_fd_sc_hd__ebufn_1
*I *2389:TE_B I *D sky130_fd_sc_hd__ebufn_1
*I *2371:TE_B I *D sky130_fd_sc_hd__ebufn_1
*I *2369:TE_B I *D sky130_fd_sc_hd__ebufn_1
*I *2386:TE_B I *D sky130_fd_sc_hd__ebufn_1
*I *2388:TE_B I *D sky130_fd_sc_hd__ebufn_1
*I *2390:TE_B I *D sky130_fd_sc_hd__ebufn_1
*I *2385:TE_B I *D sky130_fd_sc_hd__ebufn_1
*I *2387:TE_B I *D sky130_fd_sc_hd__ebufn_1
*I *2392:TE_B I *D sky130_fd_sc_hd__ebufn_1
*I *2370:TE_B I *D sky130_fd_sc_hd__ebufn_1
*I *2372:TE_B I *D sky130_fd_sc_hd__ebufn_1
*I *2373:TE_B I *D sky130_fd_sc_hd__ebufn_1
*I *2376:TE_B I *D sky130_fd_sc_hd__ebufn_1
*I *2377:TE_B I *D sky130_fd_sc_hd__ebufn_1
*I *2378:TE_B I *D sky130_fd_sc_hd__ebufn_1
*I *2379:TE_B I *D sky130_fd_sc_hd__ebufn_1
*I *2381:TE_B I *D sky130_fd_sc_hd__ebufn_1
*I *2384:TE_B I *D sky130_fd_sc_hd__ebufn_1
*I *2382:TE_B I *D sky130_fd_sc_hd__ebufn_1
*I *2375:TE_B I *D sky130_fd_sc_hd__ebufn_1
*I *2383:TE_B I *D sky130_fd_sc_hd__ebufn_1
*I *2374:TE_B I *D sky130_fd_sc_hd__ebufn_1
*I *2368:Y O *D sky130_fd_sc_hd__bufinv_8
*CAP
1 *2380:TE_B 0
2 *2391:TE_B 0
3 *2389:TE_B 0
4 *2371:TE_B 0.000236193
5 *2369:TE_B 2.26248e-05
6 *2386:TE_B 0
7 *2388:TE_B 0
8 *2390:TE_B 0.000157887
9 *2385:TE_B 0
10 *2387:TE_B 0
11 *2392:TE_B 0
12 *2370:TE_B 0
13 *2372:TE_B 0
14 *2373:TE_B 0
15 *2376:TE_B 0
16 *2377:TE_B 0
17 *2378:TE_B 0
18 *2379:TE_B 0
19 *2381:TE_B 0
20 *2384:TE_B 0
21 *2382:TE_B 0
22 *2375:TE_B 2.34823e-05
23 *2383:TE_B 0.000225122
24 *2374:TE_B 0.000106426
25 *2368:Y 0.000199098
26 *166:206 0.000469881
27 *166:204 0.000497122
28 *166:174 0.000369996
29 *166:170 0.000359891
30 *166:119 0.000205165
31 *166:91 0.000154358
32 *166:83 0.000265345
33 *166:81 0.000260178
34 *166:79 0.000290803
35 *166:77 0.000378635
36 *166:75 0.000215448
37 *166:53 0.000507975
38 *166:38 0.000470906
39 *166:36 0.000288699
40 *166:34 8.02545e-05
41 *166:32 0.000142832
42 *166:30 0.000152991
43 *166:28 0.000242764
44 *166:26 0.000353063
45 *166:24 0.000350472
46 *166:22 0.000175166
47 *166:20 0.000315645
48 *166:16 0.000253375
49 *166:12 0.000374368
50 *166:10 0.000221738
51 *2371:TE_B *2371:A 0.000488848
52 *2371:TE_B *167:163 8.52481e-05
53 *2374:TE_B *167:36 3.47781e-05
54 *2374:TE_B *167:42 0.000101764
55 *2375:TE_B *167:42 0
56 *2383:TE_B *2383:A 0.000151474
57 *2390:TE_B *2386:A 8.6949e-05
58 *2390:TE_B *167:116 0.000361296
59 *166:12 *167:152 2.46345e-05
60 *166:16 *167:152 0.000164291
61 *166:20 *167:144 0.000227262
62 *166:22 *167:144 5.50049e-05
63 *166:24 *167:137 0.000270737
64 *166:24 *167:144 8.6949e-05
65 *166:26 *167:130 0.000403814
66 *166:26 *167:137 8.52481e-05
67 *166:28 *167:94 0.000148375
68 *166:28 *167:101 5.56279e-05
69 *166:28 *167:130 4.2573e-05
70 *166:30 *167:83 0.00015589
71 *166:30 *167:94 4.50291e-05
72 *166:30 *310:14 0.000170175
73 *166:32 *167:74 0.000156058
74 *166:32 *167:83 4.95081e-05
75 *166:32 *310:14 0.000198032
76 *166:34 *167:65 0.000152987
77 *166:34 *167:74 4.94227e-05
78 *166:34 *310:14 0.000202409
79 *166:38 *167:36 0.000154147
80 *166:38 *167:61 1.01436e-05
81 *166:53 *2383:A 4.94033e-05
82 *166:53 *167:42 0.000262055
83 *166:75 *167:61 4.86964e-05
84 *166:75 *167:191 0.000219283
85 *166:77 *167:191 5.3304e-05
86 *166:79 *167:191 4.17736e-05
87 *166:79 *167:193 0.000268873
88 *166:81 *167:193 8.6949e-05
89 *166:81 *167:195 0.000268873
90 *166:83 *2384:A 5.67058e-05
91 *166:83 *167:195 8.43466e-05
92 *166:91 *2382:A 5.50106e-05
93 *166:119 *167:23 0.000230823
94 *166:119 *167:36 4.6318e-06
95 *166:119 *167:61 1.5037e-05
96 *166:174 *2386:A 0.000360965
97 *166:204 *167:152 4.17736e-05
98 *166:204 *167:154 0.000271476
99 *166:204 *167:163 4.6337e-05
100 *166:206 *167:163 0.000477639
101 spine_bot_ow[15] *2374:TE_B 0
102 spine_bot_ow[17] *166:75 0
103 spine_bot_ow[18] *166:75 8.62073e-06
104 spine_bot_ow[19] *166:119 5.09072e-05
105 spine_bot_ow[20] *166:119 9.86551e-06
106 spine_bot_ow[22] *166:91 0
107 spine_bot_ow[3] *166:16 2.50227e-05
108 spine_bot_ow[4] *166:170 0
109 spine_bot_ow[6] *166:170 0
110 *5:35 *166:75 2.02872e-05
111 *5:35 *166:83 4.66047e-05
112 *5:35 *166:204 1.21972e-05
113 *24:68 *166:10 9.62764e-05
114 *86:22 *166:119 0
115 *88:22 *166:75 0
116 *89:22 *166:75 1.7992e-05
117 *90:8 *166:119 3.7122e-06
118 *90:24 *166:119 0.000129504
119 *92:22 *166:119 3.08858e-05
120 *94:22 *166:91 0
121 *95:22 *166:91 0.000220931
122 *99:8 *2369:TE_B 2.93845e-05
123 *99:8 *166:20 1.22822e-05
124 *99:24 *166:10 8.16356e-05
125 *99:24 *166:12 3.3123e-05
126 *99:24 *166:16 4.85126e-05
127 *100:10 *166:10 5.08899e-05
128 *100:10 *166:12 9.21347e-06
129 *100:10 *166:170 4.58924e-05
130 *102:24 *166:170 0
131 *104:6 *2390:TE_B 5.40655e-05
*RES
1 *2368:Y *166:10 42.3086 
2 *166:10 *166:12 0.849286 
3 *166:12 *166:16 17.2579 
4 *166:16 *166:20 3.50071 
5 *166:20 *166:22 0.621429 
6 *166:22 *166:24 3.95643 
7 *166:24 *166:26 5.38571 
8 *166:26 *166:28 3.95643 
9 *166:28 *166:30 3.95643 
10 *166:30 *166:32 3.95643 
11 *166:32 *166:34 3.95643 
12 *166:34 *166:36 15 
13 *166:36 *166:38 2.25786 
14 *166:38 *2374:TE_B 40.4236 
15 *166:38 *166:53 20.3857 
16 *166:53 *2383:TE_B 27.4536 
17 *166:53 *2375:TE_B 23.4971 
18 *166:36 *166:75 19.06 
19 *166:75 *166:77 0.621429 
20 *166:77 *166:79 3.48 
21 *166:79 *166:81 3.95643 
22 *166:81 *166:83 2.52714 
23 *166:83 *166:91 33.5836 
24 *166:91 *2382:TE_B 23 
25 *166:83 *2384:TE_B 23 
26 *166:81 *2381:TE_B 23 
27 *166:79 *2379:TE_B 23 
28 *166:77 *166:119 35.4893 
29 *166:119 *2378:TE_B 23 
30 *166:75 *2377:TE_B 23 
31 *166:34 *2376:TE_B 23 
32 *166:32 *2373:TE_B 23 
33 *166:30 *2372:TE_B 23 
34 *166:28 *2370:TE_B 23 
35 *166:26 *2392:TE_B 23 
36 *166:24 *2387:TE_B 23 
37 *166:22 *2385:TE_B 23 
38 *166:20 *166:170 32.61 
39 *166:170 *166:174 5.40643 
40 *166:174 *2390:TE_B 27.9093 
41 *166:174 *2388:TE_B 23 
42 *166:170 *2386:TE_B 23 
43 *166:16 *2369:TE_B 23.6214 
44 *166:12 *166:204 20.4064 
45 *166:204 *166:206 5.38571 
46 *166:206 *2371:TE_B 29.3386 
47 *166:206 *2389:TE_B 23 
48 *166:204 *2391:TE_B 23 
49 *166:10 *2380:TE_B 38 
*END

*D_NET *167 0.0174228
*CONN
*I *2378:A I *D sky130_fd_sc_hd__ebufn_1
*I *2377:A I *D sky130_fd_sc_hd__ebufn_1
*I *2379:A I *D sky130_fd_sc_hd__ebufn_1
*I *2381:A I *D sky130_fd_sc_hd__ebufn_1
*I *2384:A I *D sky130_fd_sc_hd__ebufn_1
*I *2369:A I *D sky130_fd_sc_hd__ebufn_1
*I *2380:A I *D sky130_fd_sc_hd__ebufn_1
*I *2389:A I *D sky130_fd_sc_hd__ebufn_1
*I *2371:A I *D sky130_fd_sc_hd__ebufn_1
*I *2391:A I *D sky130_fd_sc_hd__ebufn_1
*I *2385:A I *D sky130_fd_sc_hd__ebufn_1
*I *2387:A I *D sky130_fd_sc_hd__ebufn_1
*I *2386:A I *D sky130_fd_sc_hd__ebufn_1
*I *2388:A I *D sky130_fd_sc_hd__ebufn_1
*I *2390:A I *D sky130_fd_sc_hd__ebufn_1
*I *2392:A I *D sky130_fd_sc_hd__ebufn_1
*I *2370:A I *D sky130_fd_sc_hd__ebufn_1
*I *2372:A I *D sky130_fd_sc_hd__ebufn_1
*I *2373:A I *D sky130_fd_sc_hd__ebufn_1
*I *2374:A I *D sky130_fd_sc_hd__ebufn_1
*I *2375:A I *D sky130_fd_sc_hd__ebufn_1
*I *2383:A I *D sky130_fd_sc_hd__ebufn_1
*I *2376:A I *D sky130_fd_sc_hd__ebufn_1
*I *2382:A I *D sky130_fd_sc_hd__ebufn_1
*I *2393:LO O *D sky130_fd_sc_hd__conb_1
*CAP
1 *2378:A 0
2 *2377:A 0
3 *2379:A 0
4 *2381:A 0
5 *2384:A 6.74574e-06
6 *2369:A 0
7 *2380:A 0
8 *2389:A 0
9 *2371:A 0.0001139
10 *2391:A 0
11 *2385:A 0
12 *2387:A 0
13 *2386:A 0.000168722
14 *2388:A 0
15 *2390:A 3.76058e-05
16 *2392:A 0
17 *2370:A 2.52923e-05
18 *2372:A 2.52923e-05
19 *2373:A 2.52923e-05
20 *2374:A 0
21 *2375:A 0
22 *2383:A 0.000155489
23 *2376:A 0
24 *2382:A 0.00019061
25 *2393:LO 0
26 *167:195 8.7617e-05
27 *167:193 0.000149101
28 *167:191 0.000199922
29 *167:163 0.000294355
30 *167:154 0.00023537
31 *167:152 0.000165132
32 *167:144 0.000259586
33 *167:137 0.000311735
34 *167:130 0.000349111
35 *167:116 0.00034337
36 *167:107 0.000395561
37 *167:101 0.000396227
38 *167:94 0.000221938
39 *167:83 0.000397372
40 *167:74 0.000376383
41 *167:65 0.000380788
42 *167:61 0.000337306
43 *167:42 0.000306215
44 *167:36 0.000297237
45 *167:32 0.000195905
46 *167:23 0.000135029
47 *167:17 0.000240764
48 *167:4 0.000320848
49 *2382:A *310:14 0.000401212
50 *167:17 *310:14 0.000161265
51 *167:23 *310:14 0.000362546
52 *167:32 *310:14 2.1819e-05
53 *167:65 *310:14 5.61255e-06
54 *167:107 *310:8 0
55 spine_bot_ow[15] *167:36 0
56 spine_bot_ow[19] *167:61 2.33476e-05
57 spine_bot_ow[19] *167:191 2.49269e-05
58 *2371:TE_B *2371:A 0.000488848
59 *2371:TE_B *167:163 8.52481e-05
60 *2374:TE_B *167:36 3.47781e-05
61 *2374:TE_B *167:42 0.000101764
62 *2375:TE_B *167:42 0
63 *2383:TE_B *2383:A 0.000151474
64 *2390:TE_B *2386:A 8.6949e-05
65 *2390:TE_B *167:116 0.000361296
66 *5:35 *2371:A 0.000573195
67 *5:35 *2384:A 5.67058e-05
68 *5:35 *167:152 2.93747e-05
69 *5:35 *167:154 0.000144067
70 *5:35 *167:163 0.000649729
71 *5:35 *167:191 0.000139346
72 *5:35 *167:193 0.000355822
73 *5:35 *167:195 0.00035322
74 *82:8 *167:94 5.50049e-05
75 *86:22 *167:36 0
76 *90:8 *167:23 8.39049e-06
77 *90:8 *167:32 4.84129e-06
78 *90:24 *167:191 0.000164282
79 *99:8 *167:144 2.93747e-05
80 *100:10 *167:152 8.8645e-05
81 *102:8 *2386:A 3.22051e-05
82 *104:28 *167:107 0
83 *166:12 *167:152 2.46345e-05
84 *166:16 *167:152 0.000164291
85 *166:20 *167:144 0.000227262
86 *166:22 *167:144 5.50049e-05
87 *166:24 *167:137 0.000270737
88 *166:24 *167:144 8.6949e-05
89 *166:26 *167:130 0.000403814
90 *166:26 *167:137 8.52481e-05
91 *166:28 *167:94 0.000148375
92 *166:28 *167:101 5.56279e-05
93 *166:28 *167:130 4.2573e-05
94 *166:30 *167:83 0.00015589
95 *166:30 *167:94 4.50291e-05
96 *166:32 *167:74 0.000156058
97 *166:32 *167:83 4.95081e-05
98 *166:34 *167:65 0.000152987
99 *166:34 *167:74 4.94227e-05
100 *166:38 *167:36 0.000154147
101 *166:38 *167:61 1.01436e-05
102 *166:53 *2383:A 4.94033e-05
103 *166:53 *167:42 0.000262055
104 *166:75 *167:61 4.86964e-05
105 *166:75 *167:191 0.000219283
106 *166:77 *167:191 5.3304e-05
107 *166:79 *167:191 4.17736e-05
108 *166:79 *167:193 0.000268873
109 *166:81 *167:193 8.6949e-05
110 *166:81 *167:195 0.000268873
111 *166:83 *2384:A 5.67058e-05
112 *166:83 *167:195 8.43466e-05
113 *166:91 *2382:A 5.50106e-05
114 *166:119 *167:23 0.000230823
115 *166:119 *167:36 4.6318e-06
116 *166:119 *167:61 1.5037e-05
117 *166:174 *2386:A 0.000360965
118 *166:204 *167:152 4.17736e-05
119 *166:204 *167:154 0.000271476
120 *166:204 *167:163 4.6337e-05
121 *166:206 *167:163 0.000477639
*RES
1 *2393:LO *167:4 23 
2 *167:4 *2382:A 28.4271 
3 *167:4 *167:17 3.48 
4 *167:17 *167:23 4.95071 
5 *167:23 *2376:A 23 
6 *167:23 *167:32 15.6214 
7 *167:32 *167:36 17.61 
8 *167:36 *167:42 4.59857 
9 *167:42 *2383:A 26.9564 
10 *167:42 *2375:A 23 
11 *167:36 *2374:A 23 
12 *167:32 *167:61 0.849286 
13 *167:61 *167:65 18.48 
14 *167:65 *2373:A 23.4971 
15 *167:65 *167:74 3.95643 
16 *167:74 *2372:A 23.4971 
17 *167:74 *167:83 3.95643 
18 *167:83 *2370:A 23.4971 
19 *167:83 *167:94 4.45357 
20 *167:94 *2392:A 23 
21 *167:94 *167:101 0.621429 
22 *167:101 *167:107 32.9621 
23 *167:107 *2390:A 23.6214 
24 *167:107 *167:116 4.43286 
25 *167:116 *2388:A 23 
26 *167:116 *2386:A 27.9093 
27 *167:101 *167:130 4.90929 
28 *167:130 *2387:A 23 
29 *167:130 *167:137 3.95643 
30 *167:137 *2385:A 23 
31 *167:137 *167:144 3.95643 
32 *167:144 *167:152 33.2314 
33 *167:152 *167:154 3.00357 
34 *167:154 *2391:A 23 
35 *167:154 *167:163 7.78857 
36 *167:163 *2371:A 29.3386 
37 *167:163 *2389:A 23 
38 *167:152 *2380:A 23 
39 *167:144 *2369:A 23 
40 *167:61 *167:191 19.1843 
41 *167:191 *167:193 3.95643 
42 *167:193 *167:195 3.95643 
43 *167:195 *2384:A 23.6214 
44 *167:195 *2381:A 23 
45 *167:193 *2379:A 23 
46 *167:191 *2377:A 23 
47 *167:17 *2378:A 23 
*END

*D_NET *169 0.00108385
*CONN
*I *2394:A I *D sky130_fd_sc_hd__bufinv_8
*I *2361:Y O *D sky130_fd_sc_hd__inv_2
*CAP
1 *2394:A 0
2 *2361:Y 0.000360035
3 *169:10 0.000360035
4 *169:10 *203:10 0
5 *169:10 *258:6 0.000363783
*RES
1 *2361:Y *169:10 44.2143 
2 *169:10 *2394:A 38 
*END

*D_NET *170 0.0258208
*CONN
*I *2406:TE_B I *D sky130_fd_sc_hd__ebufn_1
*I *2411:TE_B I *D sky130_fd_sc_hd__ebufn_1
*I *2412:TE_B I *D sky130_fd_sc_hd__ebufn_1
*I *2413:TE_B I *D sky130_fd_sc_hd__ebufn_1
*I *2417:TE_B I *D sky130_fd_sc_hd__ebufn_1
*I *2418:TE_B I *D sky130_fd_sc_hd__ebufn_1
*I *2396:TE_B I *D sky130_fd_sc_hd__ebufn_1
*I *2415:TE_B I *D sky130_fd_sc_hd__ebufn_1
*I *2397:TE_B I *D sky130_fd_sc_hd__ebufn_1
*I *2398:TE_B I *D sky130_fd_sc_hd__ebufn_1
*I *2402:TE_B I *D sky130_fd_sc_hd__ebufn_1
*I *2403:TE_B I *D sky130_fd_sc_hd__ebufn_1
*I *2409:TE_B I *D sky130_fd_sc_hd__ebufn_1
*I *2400:TE_B I *D sky130_fd_sc_hd__ebufn_1
*I *2401:TE_B I *D sky130_fd_sc_hd__ebufn_1
*I *2404:TE_B I *D sky130_fd_sc_hd__ebufn_1
*I *2405:TE_B I *D sky130_fd_sc_hd__ebufn_1
*I *2410:TE_B I *D sky130_fd_sc_hd__ebufn_1
*I *2407:TE_B I *D sky130_fd_sc_hd__ebufn_1
*I *2408:TE_B I *D sky130_fd_sc_hd__ebufn_1
*I *2416:TE_B I *D sky130_fd_sc_hd__ebufn_1
*I *2399:TE_B I *D sky130_fd_sc_hd__ebufn_1
*I *2414:TE_B I *D sky130_fd_sc_hd__ebufn_1
*I *2395:TE_B I *D sky130_fd_sc_hd__ebufn_1
*I *2394:Y O *D sky130_fd_sc_hd__bufinv_8
*CAP
1 *2406:TE_B 0.000252224
2 *2411:TE_B 0
3 *2412:TE_B 0
4 *2413:TE_B 0
5 *2417:TE_B 0.000160596
6 *2418:TE_B 0
7 *2396:TE_B 0.000223947
8 *2415:TE_B 0
9 *2397:TE_B 0
10 *2398:TE_B 0
11 *2402:TE_B 2.34823e-05
12 *2403:TE_B 0
13 *2409:TE_B 0.000350019
14 *2400:TE_B 0
15 *2401:TE_B 0.000168388
16 *2404:TE_B 0.000122742
17 *2405:TE_B 0
18 *2410:TE_B 0.000138727
19 *2407:TE_B 0.000182053
20 *2408:TE_B 9.37933e-05
21 *2416:TE_B 0
22 *2399:TE_B 0.000132589
23 *2414:TE_B 7.42044e-05
24 *2395:TE_B 0
25 *2394:Y 0.000384146
26 *170:216 0.000227915
27 *170:203 0.000435371
28 *170:172 0.000121573
29 *170:137 0.000168388
30 *170:135 0.000395045
31 *170:121 0.00023058
32 *170:112 0.000246565
33 *170:99 0.000312966
34 *170:88 0.000570881
35 *170:82 0.000511038
36 *170:78 0.000316688
37 *170:76 0.000406877
38 *170:72 0.000452476
39 *170:70 0.000715457
40 *170:64 0.000571099
41 *170:62 0.000694825
42 *170:48 0.000425235
43 *170:38 0.000843367
44 *170:29 0.000167448
45 *170:27 0.000332039
46 *170:25 0.000348146
47 *170:23 0.000191119
48 *170:19 0.000419351
49 *170:10 0.000469505
50 *2396:TE_B *2396:A 0.000402113
51 *2396:TE_B *292:10 0.000224323
52 *2399:TE_B *171:139 0.000701016
53 *2399:TE_B *171:156 8.6949e-05
54 *2399:TE_B *258:6 0.000787965
55 *2401:TE_B *2401:A 9.58714e-05
56 *2401:TE_B *171:51 0.000221992
57 *2401:TE_B *171:80 9.67842e-05
58 *2401:TE_B *304:36 0.000136738
59 *2404:TE_B *171:23 0.000261061
60 *2404:TE_B *306:24 4.5051e-05
61 *2406:TE_B *2395:A 1.12487e-05
62 *2406:TE_B *2406:A 0.000190931
63 *2406:TE_B *302:10 2.93845e-05
64 *2407:TE_B *171:15 0.000136738
65 *2407:TE_B *171:36 3.47781e-05
66 *2407:TE_B *238:141 0.000138444
67 *2407:TE_B *275:12 0.00021356
68 *2408:TE_B *2408:A 0.000136738
69 *2409:TE_B *171:80 1.12487e-05
70 *2409:TE_B *171:86 0
71 *2409:TE_B *269:8 0
72 *2409:TE_B *309:14 0.000318244
73 *2409:TE_B *309:20 0
74 *2410:TE_B *2410:A 0.000180212
75 *2410:TE_B *306:24 4.95081e-05
76 *2414:TE_B *171:167 0.000185428
77 *2414:TE_B *306:20 5.3304e-05
78 *2417:TE_B *2417:A 0.000351625
79 *2417:TE_B *171:193 0.000101764
80 *170:10 *238:224 6.28488e-05
81 *170:10 *238:248 2.76611e-06
82 *170:10 *301:10 4.06849e-05
83 *170:19 *2395:A 9.98891e-05
84 *170:19 *238:248 4.99753e-06
85 *170:23 *171:228 5.3304e-05
86 *170:23 *257:6 4.5051e-05
87 *170:25 *171:212 9.67842e-05
88 *170:25 *171:219 4.2573e-05
89 *170:25 *171:228 8.52481e-05
90 *170:27 *171:212 0.000480247
91 *170:29 *171:167 9.5877e-05
92 *170:29 *171:212 8.52481e-05
93 *170:48 *2687:A1 9.84794e-05
94 *170:48 *2687:S 5.67058e-05
95 *170:48 *171:156 0.000481035
96 *170:48 *258:6 0.000545541
97 *170:48 *306:10 5.3656e-05
98 *170:62 *171:171 0.000173699
99 *170:62 *238:45 0
100 *170:62 *271:14 0
101 *170:62 *304:10 2.29192e-05
102 *170:72 *2397:A 0.000275993
103 *170:76 *2397:A 4.19743e-05
104 *170:76 *171:106 0.00024153
105 *170:76 *253:10 9.84794e-05
106 *170:78 *171:93 4.38756e-05
107 *170:78 *171:106 3.74718e-05
108 *170:82 *171:80 8.04102e-05
109 *170:82 *171:93 4.39488e-05
110 *170:88 *2408:A 4.08664e-05
111 *170:88 *171:47 0.000171635
112 *170:99 *171:36 0.000408147
113 *170:99 *171:47 2.46345e-05
114 *170:99 *275:12 0.000422638
115 *170:121 *2410:A 4.08664e-05
116 *170:121 *171:23 0.00010018
117 *170:121 *171:25 9.84851e-05
118 *170:135 *171:47 1.22803e-05
119 *170:135 *171:80 1.58805e-05
120 *170:135 *268:8 0
121 *170:172 *309:14 0.000273195
122 *170:203 *171:171 6.07611e-06
123 *170:203 *171:182 8.67978e-05
124 *170:216 *2396:A 9.67842e-05
125 *170:216 *171:193 2.70917e-05
126 spine_top_ow[1] *2406:TE_B 0.000106757
127 spine_top_ow[21] *2407:TE_B 0
128 spine_top_ow[6] *170:62 0.000384106
129 spine_top_ow[8] *170:62 0
130 *2575:DIODE *170:48 0.000192087
131 *2575:DIODE *170:62 8.62876e-05
132 *2586:DIODE *2409:TE_B 0.000143874
133 *2617:A *170:76 0.00014196
134 *2637:A *170:70 0.000141052
135 *2640:A *170:82 0.000142634
136 *2681:A *170:10 6.28695e-05
137 *2681:A *170:19 3.4932e-05
138 *24:30 *2401:TE_B 2.61526e-05
139 *24:30 *170:76 4.17736e-05
140 *24:30 *170:78 0.000212162
141 *24:30 *170:82 0.000486465
142 *24:48 *170:70 0.000403247
143 *24:48 *170:72 4.5051e-05
144 *25:34 *2408:TE_B 0.000119331
145 *25:34 *170:88 7.15126e-05
146 *137:42 *2417:TE_B 4.65317e-05
147 *137:42 *170:216 9.75779e-05
148 *138:8 *2396:TE_B 2.45549e-06
149 *142:22 *2409:TE_B 0
150 *143:8 *2409:TE_B 0
151 *143:33 *2409:TE_B 6.17437e-06
152 *143:33 *170:172 2.64616e-05
153 *147:19 *2406:TE_B 2.89463e-05
154 *147:19 *170:19 4.16764e-05
155 *148:8 *2404:TE_B 7.88828e-05
156 *148:21 *170:88 0
157 *148:21 *170:172 0.000244526
158 *154:14 *2406:TE_B 4.6318e-06
159 *159:8 *170:62 0
160 *159:8 *170:203 0
*RES
1 *2394:Y *170:10 45.9957 
2 *170:10 *2395:TE_B 38 
3 *170:10 *170:19 2.96214 
4 *170:19 *170:23 16.5743 
5 *170:23 *170:25 2.52714 
6 *170:25 *170:27 5.38571 
7 *170:27 *170:29 2.05071 
8 *170:29 *2414:TE_B 25.0507 
9 *170:29 *170:38 15 
10 *170:38 *170:48 25.5436 
11 *170:48 *2399:TE_B 31.7207 
12 *170:48 *2416:TE_B 23 
13 *170:38 *170:62 11.4136 
14 *170:62 *170:64 15 
15 *170:64 *170:70 11.6207 
16 *170:70 *170:72 3.95643 
17 *170:72 *170:76 7.78857 
18 *170:76 *170:78 2.52714 
19 *170:78 *170:82 20.3857 
20 *170:82 *170:88 21.6493 
21 *170:88 *2408:TE_B 25.5271 
22 *170:88 *170:99 20.7793 
23 *170:99 *2407:TE_B 42.5364 
24 *170:99 *170:112 15 
25 *170:112 *2410:TE_B 26.0036 
26 *170:112 *170:121 2.52714 
27 *170:121 *2405:TE_B 23 
28 *170:121 *2404:TE_B 26.9564 
29 *170:82 *170:135 0.849286 
30 *170:135 *170:137 15 
31 *170:137 *2401:TE_B 27.4329 
32 *170:137 *2400:TE_B 23 
33 *170:135 *2409:TE_B 45.685 
34 *170:78 *170:172 33.9357 
35 *170:172 *2403:TE_B 23 
36 *170:76 *2402:TE_B 23.4971 
37 *170:72 *2398:TE_B 23 
38 *170:70 *2397:TE_B 23 
39 *170:64 *2415:TE_B 23 
40 *170:62 *170:203 17.61 
41 *170:203 *2396:TE_B 28.8829 
42 *170:203 *170:216 2.07143 
43 *170:216 *2418:TE_B 23 
44 *170:216 *2417:TE_B 27.9093 
45 *170:27 *2413:TE_B 23 
46 *170:25 *2412:TE_B 23 
47 *170:23 *2411:TE_B 23 
48 *170:19 *2406:TE_B 44.4007 
*END

*D_NET *171 0.024169
*CONN
*I *2406:A I *D sky130_fd_sc_hd__ebufn_1
*I *2395:A I *D sky130_fd_sc_hd__ebufn_1
*I *2411:A I *D sky130_fd_sc_hd__ebufn_1
*I *2412:A I *D sky130_fd_sc_hd__ebufn_1
*I *2413:A I *D sky130_fd_sc_hd__ebufn_1
*I *2417:A I *D sky130_fd_sc_hd__ebufn_1
*I *2418:A I *D sky130_fd_sc_hd__ebufn_1
*I *2396:A I *D sky130_fd_sc_hd__ebufn_1
*I *2415:A I *D sky130_fd_sc_hd__ebufn_1
*I *2414:A I *D sky130_fd_sc_hd__ebufn_1
*I *2416:A I *D sky130_fd_sc_hd__ebufn_1
*I *2399:A I *D sky130_fd_sc_hd__ebufn_1
*I *2404:A I *D sky130_fd_sc_hd__ebufn_1
*I *2405:A I *D sky130_fd_sc_hd__ebufn_1
*I *2397:A I *D sky130_fd_sc_hd__ebufn_1
*I *2398:A I *D sky130_fd_sc_hd__ebufn_1
*I *2402:A I *D sky130_fd_sc_hd__ebufn_1
*I *2403:A I *D sky130_fd_sc_hd__ebufn_1
*I *2400:A I *D sky130_fd_sc_hd__ebufn_1
*I *2409:A I *D sky130_fd_sc_hd__ebufn_1
*I *2401:A I *D sky130_fd_sc_hd__ebufn_1
*I *2408:A I *D sky130_fd_sc_hd__ebufn_1
*I *2410:A I *D sky130_fd_sc_hd__ebufn_1
*I *2407:A I *D sky130_fd_sc_hd__ebufn_1
*I *2419:LO O *D sky130_fd_sc_hd__conb_1
*CAP
1 *2406:A 0.00020936
2 *2395:A 7.88898e-05
3 *2411:A 0
4 *2412:A 0
5 *2413:A 0
6 *2417:A 0.000164453
7 *2418:A 0
8 *2396:A 0.000145132
9 *2415:A 0
10 *2414:A 2.11808e-05
11 *2416:A 0
12 *2399:A 0
13 *2404:A 0
14 *2405:A 0
15 *2397:A 4.61136e-05
16 *2398:A 0
17 *2402:A 1.64097e-05
18 *2403:A 0
19 *2400:A 0
20 *2409:A 0
21 *2401:A 4.95435e-05
22 *2408:A 0.000116957
23 *2410:A 6.9556e-05
24 *2407:A 0
25 *2419:LO 4.99814e-05
26 *171:228 0.000328197
27 *171:219 5.22135e-05
28 *171:212 0.000171643
29 *171:193 0.000243947
30 *171:182 0.000370887
31 *171:171 0.000527472
32 *171:167 0.000638413
33 *171:156 0.000520349
34 *171:139 0.000734803
35 *171:132 0.000769717
36 *171:106 0.000221659
37 *171:93 0.000393501
38 *171:86 7.89911e-05
39 *171:80 0.000529885
40 *171:64 0.000108427
41 *171:51 0.000234543
42 *171:49 7.65723e-05
43 *171:47 0.000523541
44 *171:36 0.000622106
45 *171:25 0.000315759
46 *171:23 6.75002e-05
47 *171:21 0.000171176
48 *171:15 0.000920792
49 *171:6 0.000415591
50 *2395:A *238:248 0.000222104
51 *2401:A *304:36 4.95081e-05
52 *2406:A *238:248 0.000359786
53 *2406:A *238:267 3.92407e-05
54 *2406:A *302:10 2.93845e-05
55 *2410:A *306:24 0.000222785
56 *2414:A *257:6 2.02872e-05
57 *2414:A *306:20 5.50106e-05
58 *171:6 *2626:S 0.000143655
59 *171:15 *2626:S 2.18409e-05
60 *171:15 *238:141 0.000294145
61 *171:23 *306:24 0.00034801
62 *171:25 *306:24 8.6949e-05
63 *171:47 *269:8 3.98859e-05
64 *171:47 *275:12 8.82524e-05
65 *171:47 *285:10 0
66 *171:64 *269:8 5.09988e-05
67 *171:64 *285:10 0.000212085
68 *171:64 *304:36 5.94125e-05
69 *171:80 *269:8 1.59312e-05
70 *171:132 *2622:A1 0.000184527
71 *171:132 *238:141 0.000162831
72 *171:132 *258:6 5.29672e-05
73 *171:139 *258:6 4.95081e-05
74 *171:156 *271:14 0.000106121
75 *171:156 *306:10 0.000167452
76 *171:167 *257:6 0.000310636
77 *171:167 *306:20 1.56665e-05
78 *171:171 *238:275 0
79 *171:171 *270:14 0.000375183
80 *171:212 *257:6 0.00064894
81 *171:219 *257:6 5.50106e-05
82 *171:228 *257:6 0.000139346
83 spine_top_ow[6] *171:171 0.000392912
84 *2396:TE_B *2396:A 0.000402113
85 *2399:TE_B *171:139 0.000701016
86 *2399:TE_B *171:156 8.6949e-05
87 *2401:TE_B *2401:A 9.58714e-05
88 *2401:TE_B *171:51 0.000221992
89 *2401:TE_B *171:80 9.67842e-05
90 *2404:TE_B *171:23 0.000261061
91 *2406:TE_B *2395:A 1.12487e-05
92 *2406:TE_B *2406:A 0.000190931
93 *2407:TE_B *171:15 0.000136738
94 *2407:TE_B *171:36 3.47781e-05
95 *2408:TE_B *2408:A 0.000136738
96 *2409:TE_B *171:80 1.12487e-05
97 *2409:TE_B *171:86 0
98 *2410:TE_B *2410:A 0.000180212
99 *2414:TE_B *171:167 0.000185428
100 *2417:TE_B *2417:A 0.000351625
101 *2417:TE_B *171:193 0.000101764
102 *2575:DIODE *171:171 6.16531e-05
103 *2576:DIODE *2396:A 5.50049e-05
104 *2605:A *171:21 7.91596e-05
105 *2605:A *171:132 9.84851e-05
106 *2617:A *171:106 0.00014196
107 *2640:A *171:80 7.72342e-05
108 *24:30 *2401:A 0.000102052
109 *24:30 *171:51 0.000111911
110 *24:48 *2397:A 0.000362942
111 *24:48 *171:106 0.000530627
112 *137:10 *2396:A 4.06849e-05
113 *137:42 *171:171 4.21594e-06
114 *137:42 *171:182 4.90787e-05
115 *142:22 *171:80 0.000101762
116 *142:22 *171:86 0.000138727
117 *143:8 *171:64 1.19727e-05
118 *148:21 *171:86 8.16459e-05
119 *149:24 *171:15 0.00010018
120 *159:19 *2396:A 8.76309e-05
121 *160:39 *171:156 5.41385e-05
122 *161:6 *2417:A 5.70006e-05
123 *170:19 *2395:A 9.98891e-05
124 *170:23 *171:228 5.3304e-05
125 *170:25 *171:212 9.67842e-05
126 *170:25 *171:219 4.2573e-05
127 *170:25 *171:228 8.52481e-05
128 *170:27 *171:212 0.000480247
129 *170:29 *171:167 9.5877e-05
130 *170:29 *171:212 8.52481e-05
131 *170:48 *171:156 0.000481035
132 *170:62 *171:171 0.000173699
133 *170:72 *2397:A 0.000275993
134 *170:76 *2397:A 4.19743e-05
135 *170:76 *171:106 0.00024153
136 *170:78 *171:93 4.38756e-05
137 *170:78 *171:106 3.74718e-05
138 *170:82 *171:80 8.04102e-05
139 *170:82 *171:93 4.39488e-05
140 *170:88 *2408:A 4.08664e-05
141 *170:88 *171:47 0.000171635
142 *170:99 *171:36 0.000408147
143 *170:99 *171:47 2.46345e-05
144 *170:121 *2410:A 4.08664e-05
145 *170:121 *171:23 0.00010018
146 *170:121 *171:25 9.84851e-05
147 *170:135 *171:47 1.22803e-05
148 *170:135 *171:80 1.58805e-05
149 *170:203 *171:171 6.07611e-06
150 *170:203 *171:182 8.67978e-05
151 *170:216 *2396:A 9.67842e-05
152 *170:216 *171:193 2.70917e-05
*RES
1 *2419:LO *171:6 24.5743 
2 *171:6 *2407:A 23 
3 *171:6 *171:15 8.265 
4 *171:15 *171:21 32.2579 
5 *171:21 *171:23 3.95643 
6 *171:23 *171:25 1.09786 
7 *171:25 *2410:A 25.5271 
8 *171:25 *171:36 20.7793 
9 *171:36 *2408:A 40.0507 
10 *171:36 *171:47 5.77929 
11 *171:47 *171:49 15 
12 *171:49 *171:51 2.52714 
13 *171:51 *2401:A 25.0507 
14 *171:51 *171:64 32.9621 
15 *171:64 *2409:A 23 
16 *171:49 *2400:A 23 
17 *171:47 *171:80 20.7586 
18 *171:80 *171:86 32.2579 
19 *171:86 *2403:A 23 
20 *171:80 *171:93 3.00357 
21 *171:93 *2402:A 23.4971 
22 *171:93 *171:106 7.93357 
23 *171:106 *2398:A 23 
24 *171:106 *2397:A 26.9564 
25 *171:23 *2405:A 23 
26 *171:21 *2404:A 23 
27 *171:15 *171:132 9.21786 
28 *171:132 *2399:A 23 
29 *171:132 *171:139 8.72071 
30 *171:139 *2416:A 23 
31 *171:139 *171:156 39.715 
32 *171:156 *2414:A 23.6214 
33 *171:156 *171:167 3.97714 
34 *171:167 *171:171 26.0614 
35 *171:171 *2415:A 38 
36 *171:171 *171:182 17.9621 
37 *171:182 *2396:A 28.3857 
38 *171:182 *171:193 2.07143 
39 *171:193 *2418:A 23 
40 *171:193 *2417:A 27.9093 
41 *171:167 *2413:A 23 
42 *171:167 *171:212 7.29143 
43 *171:212 *2412:A 23 
44 *171:212 *171:219 0.621429 
45 *171:219 *2411:A 23 
46 *171:219 *171:228 16.5743 
47 *171:228 *2395:A 40.9621 
48 *171:228 *2406:A 44.0486 
*END

*D_NET *173 0.0214238
*CONN
*I *2445:B I *D sky130_fd_sc_hd__and2_2
*I *2421:B I *D sky130_fd_sc_hd__and2_2
*I *2429:B I *D sky130_fd_sc_hd__and2_2
*I *2431:B I *D sky130_fd_sc_hd__and2_2
*I *2435:B I *D sky130_fd_sc_hd__and2_2
*I *2433:B I *D sky130_fd_sc_hd__and2_2
*I *2437:B I *D sky130_fd_sc_hd__and2_2
*I *2427:B I *D sky130_fd_sc_hd__and2_2
*I *2420:A I *D sky130_fd_sc_hd__buf_8
*I *2425:B I *D sky130_fd_sc_hd__and2_2
*I *2423:B I *D sky130_fd_sc_hd__and2_2
*I *2439:B I *D sky130_fd_sc_hd__and2_2
*I *2441:B I *D sky130_fd_sc_hd__and2_2
*I *2443:B I *D sky130_fd_sc_hd__and2_2
*I *2447:B I *D sky130_fd_sc_hd__and2_2
*I *2449:B I *D sky130_fd_sc_hd__and2_2
*I *2455:B I *D sky130_fd_sc_hd__and2_2
*I *2451:B I *D sky130_fd_sc_hd__and2_2
*I *2453:B I *D sky130_fd_sc_hd__and2_2
*I *2360:A I *D sky130_fd_sc_hd__inv_2
*I *2545:X O *D sky130_fd_sc_hd__buf_8
*CAP
1 *2445:B 0
2 *2421:B 8.16641e-05
3 *2429:B 0
4 *2431:B 0
5 *2435:B 0.000170792
6 *2433:B 0
7 *2437:B 0.00037066
8 *2427:B 0
9 *2420:A 0.000289414
10 *2425:B 0.000173142
11 *2423:B 0
12 *2439:B 1.26462e-05
13 *2441:B 1.17411e-05
14 *2443:B 2.34823e-05
15 *2447:B 0
16 *2449:B 2.34823e-05
17 *2455:B 0
18 *2451:B 7.8304e-05
19 *2453:B 0
20 *2360:A 8.94094e-05
21 *2545:X 0
22 *173:182 0.000318761
23 *173:165 0.000733568
24 *173:163 0.000355662
25 *173:161 0.000340094
26 *173:148 0.000199371
27 *173:146 0.000916208
28 *173:124 0.000666262
29 *173:120 0.00131959
30 *173:118 0.000663864
31 *173:107 0.00101486
32 *173:88 0.000786566
33 *173:79 0.000294762
34 *173:70 0.000364768
35 *173:66 0.000307524
36 *173:59 0.000251749
37 *173:48 0.000804122
38 *173:20 0.00016267
39 *173:18 0.000331342
40 *173:10 0.000642116
41 *173:4 0.0010989
42 *2437:B *182:10 1.24376e-05
43 *2451:B *190:10 9.4449e-05
44 *173:18 *191:10 0.000167443
45 *173:20 *190:10 7.23336e-06
46 *173:48 *188:10 5.50106e-05
47 *173:59 *187:10 9.84851e-05
48 *173:66 *186:10 2.93845e-05
49 *173:79 *184:10 5.50049e-05
50 *173:107 *175:10 4.06849e-05
51 *173:107 *226:14 0.000137788
52 *173:107 *227:14 1.89039e-05
53 *173:118 *175:10 2.25809e-05
54 *173:120 *174:8 0
55 *173:124 *174:8 0
56 *173:146 *177:10 0
57 *173:146 *178:10 0
58 *173:163 *178:10 5.41288e-05
59 *173:182 *180:8 7.88165e-05
60 spine_bot_iw[10] *173:107 3.88504e-05
61 spine_bot_iw[6] *173:124 0
62 spine_bot_iw[7] *173:118 0.00084654
63 spine_bot_iw[7] *173:120 0.000353907
64 spine_bot_iw[7] *173:124 0.000154382
65 *2427:A *173:161 4.07902e-05
66 *2433:A *173:182 1.05441e-05
67 *2447:A *173:66 0.000187129
68 *2447:A *173:70 0.000215765
69 *2534:RESET_B *173:118 0.000162954
70 *2534:RESET_B *173:120 0.000235542
71 *9:23 *173:118 0.000394982
72 *10:19 *2420:A 0.000755659
73 *10:19 *2425:B 0.000451686
74 *12:19 *173:161 0.000184704
75 *13:17 *2421:B 0.000397596
76 *13:23 *173:182 0
77 *15:17 *2421:B 0.000397596
78 *15:17 *2435:B 7.44257e-05
79 *18:25 *173:107 0.000166768
80 *21:58 *2443:B 0
81 *21:58 *173:70 7.06229e-05
82 *21:58 *173:79 0.000102301
83 *21:58 *173:88 0.00010776
84 *21:58 *173:107 0.000554584
85 *22:36 *173:107 9.84851e-05
86 *22:36 *173:118 0.000479329
87 *22:44 *173:59 0.000141954
88 *23:36 *173:18 8.68883e-05
89 *24:68 *2360:A 0.000102389
90 *52:10 *173:124 0
91 *53:8 *173:146 0
92 *62:8 *173:182 0.00011247
93 *163:8 *2435:B 3.53115e-05
94 *164:91 *173:118 0.000263089
95 *164:93 *173:118 0.000428951
*RES
1 *2545:X *173:4 23 
2 *173:4 *173:10 23.5136 
3 *173:10 *173:18 19.0807 
4 *173:18 *173:20 1.09786 
5 *173:20 *2360:A 25.0507 
6 *173:20 *2453:B 23 
7 *173:18 *2451:B 25.0507 
8 *173:10 *2455:B 38 
9 *173:4 *173:48 10.6264 
10 *173:48 *2449:B 23.4971 
11 *173:48 *173:59 3.50071 
12 *173:59 *2447:B 23 
13 *173:59 *173:66 3.00357 
14 *173:66 *173:70 4.93 
15 *173:70 *2443:B 23.4971 
16 *173:70 *173:79 3.00357 
17 *173:79 *2441:B 23.4971 
18 *173:79 *173:88 3.00357 
19 *173:88 *2439:B 23.4971 
20 *173:88 *173:107 45.08 
21 *173:107 *2423:B 23 
22 *173:107 *173:118 31.7993 
23 *173:118 *173:120 5.075 
24 *173:120 *173:124 19.0186 
25 *173:124 *2425:B 27.9093 
26 *173:124 *2420:A 31.2443 
27 *173:120 *173:146 41.5793 
28 *173:146 *173:148 15 
29 *173:148 *2427:B 23 
30 *173:148 *173:161 5.57214 
31 *173:161 *173:163 3.00357 
32 *173:163 *173:165 3.48 
33 *173:165 *2437:B 29.38 
34 *173:165 *173:182 33.3143 
35 *173:182 *2433:B 23 
36 *173:182 *2435:B 26.5214 
37 *173:163 *2431:B 23 
38 *173:161 *2429:B 23 
39 *173:118 *2421:B 42.4329 
40 *173:66 *2445:B 23 
*END

*D_NET *174 0.00083054
*CONN
*I *2422:A I *D sky130_fd_sc_hd__buf_8
*I *2421:X O *D sky130_fd_sc_hd__and2_2
*CAP
1 *2422:A 0
2 *2421:X 0.000242116
3 *174:8 0.000242116
4 spine_bot_iw[6] *174:8 0.000346308
5 *2534:RESET_B *174:8 0
6 *173:120 *174:8 0
7 *173:124 *174:8 0
*RES
1 *2421:X *174:8 42.7229 
2 *174:8 *2422:A 38 
*END

*D_NET *175 0.00111776
*CONN
*I *2424:A I *D sky130_fd_sc_hd__buf_8
*I *2423:X O *D sky130_fd_sc_hd__and2_2
*CAP
1 *2424:A 0
2 *2423:X 0.000310052
3 *175:10 0.000310052
4 *175:10 *225:16 7.66085e-05
5 spine_bot_iw[10] *175:10 0.000351608
6 spine_bot_iw[9] *175:10 0
7 *9:23 *175:10 6.17437e-06
8 *173:107 *175:10 4.06849e-05
9 *173:118 *175:10 2.25809e-05
*RES
1 *2423:X *175:10 44.7736 
2 *175:10 *2424:A 38 
*END

*D_NET *176 0.000439562
*CONN
*I *2426:A I *D sky130_fd_sc_hd__buf_8
*I *2425:X O *D sky130_fd_sc_hd__and2_2
*CAP
1 *2426:A 0
2 *2425:X 0.000191281
3 *176:10 0.000191281
4 spine_bot_iw[7] *176:10 0
5 spine_bot_iw[8] *176:10 0
6 *10:19 *176:10 5.70006e-05
7 *54:10 *176:10 0
*RES
1 *2425:X *176:10 41.3557 
2 *176:10 *2426:A 38 
*END

*D_NET *177 0.00115782
*CONN
*I *2428:A I *D sky130_fd_sc_hd__buf_8
*I *2427:X O *D sky130_fd_sc_hd__and2_2
*CAP
1 *2428:A 0
2 *2427:X 0.00035853
3 *177:10 0.00035853
4 *2427:A *177:10 0.00018701
5 *54:10 *177:10 0.000253754
6 *173:146 *177:10 0
*RES
1 *2427:X *177:10 45.1257 
2 *177:10 *2428:A 38 
*END

*D_NET *178 0.000436146
*CONN
*I *2430:A I *D sky130_fd_sc_hd__buf_8
*I *2429:X O *D sky130_fd_sc_hd__and2_2
*CAP
1 *2430:A 0
2 *2429:X 0.000187956
3 *178:10 0.000187956
4 *178:10 *179:8 0
5 *58:12 *178:10 6.10551e-06
6 *173:146 *178:10 0
7 *173:163 *178:10 5.41288e-05
*RES
1 *2429:X *178:10 41.0036 
2 *178:10 *2430:A 38 
*END

*D_NET *179 0.00055829
*CONN
*I *2432:A I *D sky130_fd_sc_hd__buf_8
*I *2431:X O *D sky130_fd_sc_hd__and2_2
*CAP
1 *2432:A 0
2 *2431:X 0.000254956
3 *179:8 0.000254956
4 *179:8 *180:8 4.83778e-05
5 *57:12 *179:8 0
6 *60:12 *179:8 0
7 *62:8 *179:8 0
8 *178:10 *179:8 0
*RES
1 *2431:X *179:8 43.075 
2 *179:8 *2432:A 38 
*END

*D_NET *180 0.000667142
*CONN
*I *2434:A I *D sky130_fd_sc_hd__buf_8
*I *2433:X O *D sky130_fd_sc_hd__and2_2
*CAP
1 *2434:A 0
2 *2433:X 0.000192286
3 *180:8 0.000192286
4 *13:23 *180:8 0
5 *59:12 *180:8 0.000155375
6 *62:8 *180:8 0
7 *173:182 *180:8 7.88165e-05
8 *179:8 *180:8 4.83778e-05
*RES
1 *2433:X *180:8 42.7229 
2 *180:8 *2434:A 38 
*END

*D_NET *181 0.000264112
*CONN
*I *2436:A I *D sky130_fd_sc_hd__buf_8
*I *2435:X O *D sky130_fd_sc_hd__and2_2
*CAP
1 *2436:A 0
2 *2435:X 0.000126773
3 *181:8 0.000126773
4 *16:23 *181:8 1.05658e-05
5 *62:8 *181:8 0
*RES
1 *2435:X *181:8 40.2579 
2 *181:8 *2436:A 38 
*END

*D_NET *182 0.000409876
*CONN
*I *2438:A I *D sky130_fd_sc_hd__buf_8
*I *2437:X O *D sky130_fd_sc_hd__and2_2
*CAP
1 *2438:A 0
2 *2437:X 0.000198719
3 *182:10 0.000198719
4 *2437:B *182:10 1.24376e-05
5 *62:8 *182:10 0
*RES
1 *2437:X *182:10 41.0036 
2 *182:10 *2438:A 38 
*END

*D_NET *183 0.00082214
*CONN
*I *2440:A I *D sky130_fd_sc_hd__buf_8
*I *2439:X O *D sky130_fd_sc_hd__and2_2
*CAP
1 *2440:A 0
2 *2439:X 0.00041107
3 *183:8 0.00041107
4 *14:34 *183:8 0
*RES
1 *2439:X *183:8 45.54 
2 *183:8 *2440:A 38 
*END

*D_NET *184 0.000465348
*CONN
*I *2442:A I *D sky130_fd_sc_hd__buf_8
*I *2441:X O *D sky130_fd_sc_hd__and2_2
*CAP
1 *2442:A 0
2 *2441:X 0.00012469
3 *184:10 0.00012469
4 *184:10 *185:8 0
5 *14:34 *184:10 0.000135547
6 *19:50 *184:10 2.5415e-05
7 *173:79 *184:10 5.50049e-05
*RES
1 *2441:X *184:10 40.5271 
2 *184:10 *2442:A 38 
*END

*D_NET *185 0.000610992
*CONN
*I *2444:A I *D sky130_fd_sc_hd__buf_8
*I *2443:X O *D sky130_fd_sc_hd__and2_2
*CAP
1 *2444:A 0
2 *2443:X 0.000261146
3 *185:8 0.000261146
4 *185:8 *186:10 0
5 *14:34 *185:8 0
6 *19:50 *185:8 0
7 *63:14 *185:8 8.87001e-05
8 *64:10 *185:8 0
9 *65:10 *185:8 0
10 *184:10 *185:8 0
*RES
1 *2443:X *185:8 43.075 
2 *185:8 *2444:A 38 
*END

*D_NET *186 0.000699835
*CONN
*I *2446:A I *D sky130_fd_sc_hd__buf_8
*I *2445:X O *D sky130_fd_sc_hd__and2_2
*CAP
1 *2446:A 0
2 *2445:X 0.000315605
3 *186:10 0.000315605
4 *186:10 *187:10 0
5 *2539:RESET_B *186:10 0
6 *22:44 *186:10 0
7 *63:14 *186:10 0
8 *65:10 *186:10 3.92407e-05
9 *66:12 *186:10 0
10 *67:8 *186:10 0
11 *173:66 *186:10 2.93845e-05
12 *185:8 *186:10 0
*RES
1 *2445:X *186:10 43.6964 
2 *186:10 *2446:A 38 
*END

*D_NET *187 0.000478717
*CONN
*I *2448:A I *D sky130_fd_sc_hd__buf_8
*I *2447:X O *D sky130_fd_sc_hd__and2_2
*CAP
1 *2448:A 0
2 *2447:X 0.000135868
3 *187:10 0.000135868
4 *2539:RESET_B *187:10 7.28526e-05
5 *22:44 *187:10 3.56433e-05
6 *173:59 *187:10 9.84851e-05
7 *186:10 *187:10 0
*RES
1 *2447:X *187:10 41.0036 
2 *187:10 *2448:A 38 
*END

*D_NET *188 0.000696683
*CONN
*I *2450:A I *D sky130_fd_sc_hd__buf_8
*I *2449:X O *D sky130_fd_sc_hd__and2_2
*CAP
1 *2450:A 0
2 *2449:X 0.000255337
3 *188:10 0.000255337
4 *2539:RESET_B *188:10 0.000130999
5 *173:48 *188:10 5.50106e-05
*RES
1 *2449:X *188:10 43.6964 
2 *188:10 *2450:A 38 
*END

*D_NET *189 0.00101048
*CONN
*I *2452:A I *D sky130_fd_sc_hd__buf_8
*I *2451:X O *D sky130_fd_sc_hd__and2_2
*CAP
1 *2452:A 0
2 *2451:X 0.000448427
3 *189:10 0.000448427
4 *69:8 *189:10 0.000113624
*RES
1 *2451:X *189:10 45.6021 
2 *189:10 *2452:A 38 
*END

*D_NET *190 0.000736929
*CONN
*I *2454:A I *D sky130_fd_sc_hd__buf_8
*I *2453:X O *D sky130_fd_sc_hd__and2_2
*CAP
1 *2454:A 0
2 *2453:X 0.000317624
3 *190:10 0.000317624
4 *190:10 *191:10 0
5 *2451:B *190:10 9.4449e-05
6 *173:20 *190:10 7.23336e-06
*RES
1 *2453:X *190:10 42.4329 
2 *190:10 *2454:A 38 
*END

*D_NET *191 0.00120486
*CONN
*I *2456:A I *D sky130_fd_sc_hd__buf_8
*I *2455:X O *D sky130_fd_sc_hd__and2_2
*CAP
1 *2456:A 0
2 *2455:X 0.000493895
3 *191:10 0.000493895
4 *2366:A *191:10 0
5 *23:36 *191:10 4.96303e-05
6 *173:18 *191:10 0.000167443
7 *190:10 *191:10 0
*RES
1 *2455:X *191:10 46.99 
2 *191:10 *2456:A 38 
*END

*D_NET *192 0.0121805
*CONN
*I *2505:A I *D sky130_fd_sc_hd__buf_8
*I *2457:A I *D sky130_fd_sc_hd__buf_8
*I *2534:Q O *D sky130_fd_sc_hd__dfrbp_2
*CAP
1 *2505:A 0
2 *2457:A 7.87325e-05
3 *2534:Q 0.000402274
4 *192:19 0.00359953
5 *192:8 0.00408054
6 *192:19 *2459:A 0
7 *192:19 *193:12 0.00305833
8 spine_top_iw[3] *192:19 0.000113624
9 spine_top_iw[6] *192:19 0
10 *11:19 *192:8 0.000570795
11 *72:12 *2457:A 0
12 *73:12 *192:19 5.70112e-05
13 *74:8 *2457:A 0.000141869
14 *74:8 *192:19 7.77603e-05
*RES
1 *2534:Q *192:8 44.3386 
2 *192:8 *2457:A 39.9057 
3 *192:8 *192:19 88.5329 
4 *192:19 *2505:A 38 
*END

*D_NET *193 0.00988546
*CONN
*I *2458:A I *D sky130_fd_sc_hd__buf_8
*I *2506:A I *D sky130_fd_sc_hd__buf_8
*I *2535:Q O *D sky130_fd_sc_hd__dfrbp_2
*CAP
1 *2458:A 0
2 *2506:A 3.2572e-05
3 *2535:Q 0.000177328
4 *193:12 0.00309991
5 *193:10 0.00306733
6 *193:8 0.000177328
7 *2506:A *257:6 2.93747e-05
8 *193:8 *225:8 4.54551e-05
9 *193:12 *2459:A 0
10 *193:12 *194:19 0
11 spine_top_iw[6] *193:12 0.00019783
12 *75:12 *193:12 0
13 *192:19 *193:12 0.00305833
*RES
1 *2535:Q *193:8 25.9 
2 *193:8 *193:10 15 
3 *193:10 *193:12 79.025 
4 *193:12 *2506:A 38.6214 
5 *193:8 *2458:A 23 
*END

*D_NET *194 0.0104612
*CONN
*I *2507:A I *D sky130_fd_sc_hd__buf_8
*I *2459:A I *D sky130_fd_sc_hd__buf_8
*I *2536:Q O *D sky130_fd_sc_hd__dfrbp_2
*CAP
1 *2507:A 0
2 *2459:A 0.000501534
3 *2536:Q 0
4 *194:19 0.0039311
5 *194:6 0.00443263
6 *194:19 *195:17 0
7 spine_bot_iw[6] *2459:A 0.000391033
8 spine_bot_iw[6] *194:19 0.00032581
9 spine_top_iw[6] *194:19 0.000400669
10 *11:19 *2459:A 5.79559e-05
11 *12:19 *2459:A 1.83408e-05
12 *74:8 *2459:A 0
13 *75:12 *194:19 0.000177778
14 *131:8 *194:19 0.000224336
15 *192:19 *2459:A 0
16 *193:12 *2459:A 0
17 *193:12 *194:19 0
*RES
1 *2536:Q *194:6 38 
2 *194:6 *2459:A 49.3307 
3 *194:6 *194:19 79.7293 
4 *194:19 *2507:A 38 
*END

*D_NET *195 0.0082338
*CONN
*I *2508:A I *D sky130_fd_sc_hd__buf_8
*I *2460:A I *D sky130_fd_sc_hd__buf_8
*I *2537:Q O *D sky130_fd_sc_hd__dfrbp_2
*CAP
1 *2508:A 0
2 *2460:A 0.000105575
3 *2537:Q 0
4 *195:17 0.00311027
5 *195:6 0.00321585
6 *195:17 *2461:A 4.5882e-05
7 *195:17 *196:19 0.00143757
8 spine_bot_iw[6] *2460:A 6.58373e-05
9 spine_bot_iw[6] *195:17 0.000123815
10 spine_top_iw[8] *195:17 0.000129003
11 *133:12 *195:17 0
12 *164:89 *195:17 0
13 *164:91 *2460:A 0
14 *164:91 *195:17 0
15 *194:19 *195:17 0
*RES
1 *2537:Q *195:6 38 
2 *195:6 *2460:A 39.9057 
3 *195:6 *195:17 71.63 
4 *195:17 *2508:A 38 
*END

*D_NET *196 0.0064231
*CONN
*I *2509:A I *D sky130_fd_sc_hd__buf_8
*I *2461:A I *D sky130_fd_sc_hd__buf_8
*I *2538:Q O *D sky130_fd_sc_hd__dfrbp_2
*CAP
1 *2509:A 0
2 *2461:A 6.63285e-05
3 *2538:Q 8.51783e-05
4 *196:19 0.0022521
5 *196:8 0.00240361
6 *196:8 *228:8 2.98648e-05
7 *196:19 *2465:A 0
8 *196:19 *200:19 0
9 spine_bot_iw[8] *196:19 0
10 spine_bot_iw[9] *196:19 0
11 *133:12 *196:19 0
12 *164:89 *2461:A 7.03663e-05
13 *164:89 *196:8 6.17437e-06
14 *164:89 *196:19 2.60152e-05
15 *195:17 *2461:A 4.5882e-05
16 *195:17 *196:19 0.00143757
*RES
1 *2538:Q *196:8 39.0979 
2 *196:8 *2461:A 39.9057 
3 *196:8 *196:19 54.7271 
4 *196:19 *2509:A 38 
*END

*D_NET *197 0.00612504
*CONN
*I *2510:A I *D sky130_fd_sc_hd__buf_8
*I *2462:A I *D sky130_fd_sc_hd__buf_8
*I *2540:Q O *D sky130_fd_sc_hd__dfrbp_2
*CAP
1 *2510:A 0
2 *2462:A 0.00028185
3 *2540:Q 0.000815572
4 *197:21 0.000829923
5 *197:8 0.00111177
6 *197:6 0.000815572
7 *197:6 *2464:A 5.25848e-05
8 *197:21 *2463:A 2.82307e-05
9 *197:21 *2465:A 0
10 *197:21 *198:23 0.0004235
11 *197:21 *200:19 0
12 spine_bot_iw[10] *2462:A 0.00057082
13 spine_bot_iw[10] *197:21 0.000270722
14 spine_bot_iw[9] *2462:A 0
15 spine_bot_iw[9] *197:21 0
16 *164:39 *197:6 0.000361027
17 *164:52 *197:6 0.000563467
*RES
1 *2540:Q *197:6 36.0086 
2 *197:6 *197:8 15 
3 *197:8 *2462:A 45.54 
4 *197:8 *197:21 35.9214 
5 *197:21 *2510:A 23 
*END

*D_NET *198 0.00597567
*CONN
*I *2511:A I *D sky130_fd_sc_hd__buf_8
*I *2463:A I *D sky130_fd_sc_hd__buf_8
*I *2541:Q O *D sky130_fd_sc_hd__dfrbp_2
*CAP
1 *2511:A 0
2 *2463:A 0.000225405
3 *2541:Q 0.000384718
4 *198:23 0.000791572
5 *198:8 0.0014017
6 *2463:A *2464:A 0.00030643
7 *198:8 *232:8 4.06849e-05
8 *198:23 *2464:A 0.000424869
9 *198:23 *199:19 0.00168427
10 *198:23 *200:19 0
11 spine_bot_iw[10] *2463:A 0.00020394
12 *2538:RESET_B *2463:A 5.25997e-05
13 *164:64 *2463:A 7.76364e-06
14 *197:21 *2463:A 2.82307e-05
15 *197:21 *198:23 0.0004235
*RES
1 *2541:Q *198:8 42.9093 
2 *198:8 *2463:A 45.105 
3 *198:8 *198:23 42.6121 
4 *198:23 *2511:A 23 
*END

*D_NET *199 0.00857303
*CONN
*I *2512:A I *D sky130_fd_sc_hd__buf_8
*I *2464:A I *D sky130_fd_sc_hd__buf_8
*I *2542:Q O *D sky130_fd_sc_hd__dfrbp_2
*CAP
1 *2512:A 3.42813e-05
2 *2464:A 0.000294379
3 *2542:Q 0
4 *199:19 0.00224042
5 *199:6 0.00250052
6 *199:19 *200:19 0
7 *199:19 *206:10 0.000289716
8 *199:19 *207:8 0
9 spine_top_iw[14] *199:19 0.000282633
10 *2463:A *2464:A 0.00030643
11 *2542:RESET_B *2464:A 0.00015192
12 *11:55 *199:19 0
13 *21:28 *2512:A 1.94812e-05
14 *107:8 *199:19 8.16253e-05
15 *164:64 *2464:A 0.000209903
16 *197:6 *2464:A 5.25848e-05
17 *198:23 *2464:A 0.000424869
18 *198:23 *199:19 0.00168427
*RES
1 *2542:Q *199:6 38 
2 *199:6 *2464:A 48.7507 
3 *199:6 *199:19 52.6143 
4 *199:19 *2512:A 38.6214 
*END

*D_NET *200 0.00646232
*CONN
*I *2513:A I *D sky130_fd_sc_hd__buf_8
*I *2465:A I *D sky130_fd_sc_hd__buf_8
*I *2543:Q O *D sky130_fd_sc_hd__dfrbp_2
*CAP
1 *2513:A 3.09382e-05
2 *2465:A 0.000170657
3 *2543:Q 0
4 *200:19 0.00277694
5 *200:6 0.00291666
6 *2513:A *283:20 2.93845e-05
7 *200:19 *206:10 0
8 spine_top_iw[8] *200:19 0.000157385
9 *133:12 *200:19 0
10 *134:8 *200:19 0.000380346
11 *196:19 *2465:A 0
12 *196:19 *200:19 0
13 *197:21 *2465:A 0
14 *197:21 *200:19 0
15 *198:23 *200:19 0
16 *199:19 *200:19 0
*RES
1 *2543:Q *200:6 38 
2 *200:6 *2465:A 41.0036 
3 *200:6 *200:19 54.7271 
4 *200:19 *2513:A 38.6214 
*END

*D_NET *203 0.0206836
*CONN
*I *2469:B I *D sky130_fd_sc_hd__and2_2
*I *2468:A I *D sky130_fd_sc_hd__buf_8
*I *2471:B I *D sky130_fd_sc_hd__and2_2
*I *2487:B I *D sky130_fd_sc_hd__and2_2
*I *2479:B I *D sky130_fd_sc_hd__and2_2
*I *2477:B I *D sky130_fd_sc_hd__and2_2
*I *2481:B I *D sky130_fd_sc_hd__and2_2
*I *2483:B I *D sky130_fd_sc_hd__and2_2
*I *2485:B I *D sky130_fd_sc_hd__and2_2
*I *2475:B I *D sky130_fd_sc_hd__and2_2
*I *2473:B I *D sky130_fd_sc_hd__and2_2
*I *2489:B I *D sky130_fd_sc_hd__and2_2
*I *2491:B I *D sky130_fd_sc_hd__and2_2
*I *2493:B I *D sky130_fd_sc_hd__and2_2
*I *2495:B I *D sky130_fd_sc_hd__and2_2
*I *2497:B I *D sky130_fd_sc_hd__and2_2
*I *2499:B I *D sky130_fd_sc_hd__and2_2
*I *2501:B I *D sky130_fd_sc_hd__and2_2
*I *2503:B I *D sky130_fd_sc_hd__and2_2
*I *2361:A I *D sky130_fd_sc_hd__inv_2
*I *2548:X O *D sky130_fd_sc_hd__buf_8
*CAP
1 *2469:B 0
2 *2468:A 0
3 *2471:B 0
4 *2487:B 0
5 *2479:B 0.000184535
6 *2477:B 3.14038e-05
7 *2481:B 0
8 *2483:B 0
9 *2485:B 0.000108963
10 *2475:B 0
11 *2473:B 0.000284362
12 *2489:B 0
13 *2491:B 1.17411e-05
14 *2493:B 2.34823e-05
15 *2495:B 0
16 *2497:B 0
17 *2499:B 0
18 *2501:B 0
19 *2503:B 5.60012e-05
20 *2361:A 3.30031e-05
21 *2548:X 3.79302e-05
22 *203:220 0.000496618
23 *203:212 0.000600478
24 *203:205 0.000264178
25 *203:192 0.000217191
26 *203:162 0.000120557
27 *203:149 0.00032723
28 *203:147 0.000290597
29 *203:145 0.000254951
30 *203:125 0.000781143
31 *203:115 0.000778488
32 *203:113 0.00115443
33 *203:109 0.000821575
34 *203:102 0.000125485
35 *203:91 0.000157572
36 *203:82 0.000262196
37 *203:73 0.000221205
38 *203:60 0.000782922
39 *203:45 0.000451632
40 *203:38 0.000291133
41 *203:21 0.000913382
42 *203:10 0.00141031
43 *203:8 0.000786563
44 *2361:A *258:6 2.93431e-05
45 *2473:B *206:10 2.72257e-05
46 *2479:B *258:6 3.53115e-05
47 *2503:B *279:8 0.000144501
48 *2503:B *282:8 4.93812e-05
49 *203:38 *221:10 0
50 *203:38 *280:6 5.56356e-05
51 *203:45 *220:10 2.92604e-05
52 *203:45 *280:6 0.000262409
53 *203:60 *219:10 1.57571e-05
54 *203:60 *220:10 2.30292e-05
55 *203:60 *280:6 0.000128723
56 *203:60 *280:14 0.000399141
57 *203:73 *217:8 0
58 *203:73 *279:8 0.000156058
59 *203:73 *282:8 0.000272383
60 *203:82 *280:14 0.000749695
61 *203:91 *280:14 0.000317767
62 *203:102 *280:14 0.00031388
63 *203:109 *280:14 0.000120708
64 *203:115 *207:8 0
65 *203:115 *208:8 0.000375331
66 *203:125 *207:8 0
67 *203:162 *210:8 4.83778e-05
68 *203:162 *212:8 0
69 *203:192 *280:14 0.000177741
70 *203:205 *280:14 0.000442175
71 *203:212 *280:14 0.000289425
72 *203:220 *204:8 8.53726e-05
73 spine_top_iw[16] *203:113 0.000313911
74 spine_top_iw[16] *203:115 1.22803e-05
75 spine_top_iw[9] *203:220 0
76 *2481:A *203:147 8.6949e-05
77 *2481:A *203:149 0.00014196
78 *2485:A *2477:B 2.18409e-05
79 *2485:A *2485:B 0.000143655
80 *2485:A *203:147 0.000222786
81 *2485:A *203:149 4.97808e-05
82 *13:57 *2479:B 9.47033e-05
83 *16:49 *203:145 5.43894e-06
84 *18:53 *203:205 0.000106671
85 *22:21 *203:82 0.000375837
86 *22:21 *203:91 0.000165772
87 *22:21 *203:102 0.000159721
88 *22:21 *203:109 0.000231441
89 *22:21 *203:192 0.00030596
90 *22:21 *203:205 0.000644847
91 *22:21 *203:212 0.000536777
92 *23:63 *203:38 2.1014e-05
93 *23:63 *203:45 0.000106277
94 *25:38 *2503:B 5.56356e-05
95 *108:12 *203:220 5.04995e-05
96 *112:8 *203:113 0
97 *114:8 *203:113 0
98 *131:8 *203:220 0
99 *169:10 *203:10 0
*RES
1 *2548:X *203:8 38.6214 
2 *203:8 *203:10 14.2307 
3 *203:10 *2361:A 38.6214 
4 *203:10 *203:21 11.0614 
5 *203:21 *2503:B 40.0714 
6 *203:21 *203:38 18.5836 
7 *203:38 *2501:B 23 
8 *203:38 *203:45 3.00357 
9 *203:45 *2499:B 23 
10 *203:45 *203:60 40.44 
11 *203:60 *2497:B 23 
12 *203:60 *203:73 35.6136 
13 *203:73 *2495:B 23 
14 *203:60 *203:82 8.74143 
15 *203:82 *2493:B 23.4971 
16 *203:82 *203:91 3.48 
17 *203:91 *2491:B 23.4971 
18 *203:91 *203:102 3.97714 
19 *203:102 *2489:B 23 
20 *203:102 *203:109 2.52714 
21 *203:109 *203:113 28.5264 
22 *203:113 *203:115 5.77929 
23 *203:115 *203:125 22.9129 
24 *203:125 *2473:B 27.9507 
25 *203:125 *2475:B 23 
26 *203:115 *203:145 15.4971 
27 *203:145 *203:147 5.38571 
28 *203:147 *203:149 2.52714 
29 *203:149 *2485:B 25.5271 
30 *203:149 *203:162 32.61 
31 *203:162 *2483:B 23 
32 *203:147 *2481:B 23 
33 *203:145 *2477:B 23.6214 
34 *203:113 *2479:B 41.5007 
35 *203:109 *203:192 3.48 
36 *203:192 *2487:B 23 
37 *203:192 *203:205 8.90714 
38 *203:205 *2471:B 23 
39 *203:205 *203:212 5.86214 
40 *203:212 *203:220 39.2593 
41 *203:220 *2468:A 23 
42 *203:212 *2469:B 23 
*END

*D_NET *204 0.000279751
*CONN
*I *2470:A I *D sky130_fd_sc_hd__buf_8
*I *2469:X O *D sky130_fd_sc_hd__and2_2
*CAP
1 *2470:A 0
2 *2469:X 9.7189e-05
3 *204:8 9.7189e-05
4 *204:8 *205:10 0
5 *203:220 *204:8 8.53726e-05
*RES
1 *2469:X *204:8 40.2579 
2 *204:8 *2470:A 38 
*END

*D_NET *205 0.000638902
*CONN
*I *2472:A I *D sky130_fd_sc_hd__buf_8
*I *2471:X O *D sky130_fd_sc_hd__and2_2
*CAP
1 *2472:A 0
2 *2471:X 0.000206685
3 *205:10 0.000206685
4 *205:10 *280:14 0.000142636
5 spine_top_iw[9] *205:10 8.28966e-05
6 *204:8 *205:10 0
*RES
1 *2471:X *205:10 41.8321 
2 *205:10 *2472:A 38 
*END

*D_NET *206 0.00135837
*CONN
*I *2474:A I *D sky130_fd_sc_hd__buf_8
*I *2473:X O *D sky130_fd_sc_hd__and2_2
*CAP
1 *2474:A 0
2 *2473:X 0.000518029
3 *206:10 0.000518029
4 *2473:B *206:10 2.72257e-05
5 *10:41 *206:10 5.37348e-06
6 *199:19 *206:10 0.000289716
7 *200:19 *206:10 0
*RES
1 *2473:X *206:10 47.9429 
2 *206:10 *2474:A 38 
*END

*D_NET *207 0.000557238
*CONN
*I *2476:A I *D sky130_fd_sc_hd__buf_8
*I *2475:X O *D sky130_fd_sc_hd__and2_2
*CAP
1 *2476:A 0
2 *2475:X 0.000278619
3 *207:8 0.000278619
4 spine_top_iw[14] *207:8 0
5 *199:19 *207:8 0
6 *203:115 *207:8 0
7 *203:125 *207:8 0
*RES
1 *2475:X *207:8 42.7229 
2 *207:8 *2476:A 38 
*END

*D_NET *208 0.000941529
*CONN
*I *2478:A I *D sky130_fd_sc_hd__buf_8
*I *2477:X O *D sky130_fd_sc_hd__and2_2
*CAP
1 *2478:A 0
2 *2477:X 0.000161301
3 *208:8 0.000161301
4 spine_top_iw[16] *208:8 0.000243596
5 *203:115 *208:8 0.000375331
*RES
1 *2477:X *208:8 43.075 
2 *208:8 *2478:A 38 
*END

*D_NET *209 0.000258345
*CONN
*I *2480:A I *D sky130_fd_sc_hd__buf_8
*I *2479:X O *D sky130_fd_sc_hd__and2_2
*CAP
1 *2480:A 0
2 *2479:X 0.000129173
3 *209:8 0.000129173
4 *209:8 *210:8 0
5 spine_top_iw[16] *209:8 0
*RES
1 *2479:X *209:8 40.2579 
2 *209:8 *2480:A 38 
*END

*D_NET *210 0.00128154
*CONN
*I *2482:A I *D sky130_fd_sc_hd__buf_8
*I *2481:X O *D sky130_fd_sc_hd__and2_2
*CAP
1 *2482:A 0
2 *2481:X 0.000504411
3 *210:8 0.000504411
4 *210:8 *211:8 0
5 *210:8 *212:8 0
6 spine_top_iw[18] *210:8 0.000224345
7 spine_top_iw[19] *210:8 0
8 *203:162 *210:8 4.83778e-05
9 *209:8 *210:8 0
*RES
1 *2481:X *210:8 48.7093 
2 *210:8 *2482:A 38 
*END

*D_NET *211 0.000643501
*CONN
*I *2484:A I *D sky130_fd_sc_hd__buf_8
*I *2483:X O *D sky130_fd_sc_hd__and2_2
*CAP
1 *2484:A 0
2 *2483:X 0.000208002
3 *211:8 0.000208002
4 *211:8 *212:8 0
5 spine_top_iw[19] *211:8 0.000227497
6 *210:8 *211:8 0
*RES
1 *2483:X *211:8 42.7229 
2 *211:8 *2484:A 38 
*END

*D_NET *212 0.000545529
*CONN
*I *2486:A I *D sky130_fd_sc_hd__buf_8
*I *2485:X O *D sky130_fd_sc_hd__and2_2
*CAP
1 *2486:A 0
2 *2485:X 0.000272764
3 *212:8 0.000272764
4 *203:162 *212:8 0
5 *210:8 *212:8 0
6 *211:8 *212:8 0
*RES
1 *2485:X *212:8 43.075 
2 *212:8 *2486:A 38 
*END

*D_NET *213 0.000568065
*CONN
*I *2488:A I *D sky130_fd_sc_hd__buf_8
*I *2487:X O *D sky130_fd_sc_hd__and2_2
*CAP
1 *2488:A 0
2 *2487:X 0.000231341
3 *213:8 0.000231341
4 *213:8 *214:10 0
5 *119:12 *213:8 0.000105384
*RES
1 *2487:X *213:8 42.7229 
2 *213:8 *2488:A 38 
*END

*D_NET *214 0.000588561
*CONN
*I *2490:A I *D sky130_fd_sc_hd__buf_8
*I *2489:X O *D sky130_fd_sc_hd__and2_2
*CAP
1 *2490:A 0
2 *2489:X 0.000221661
3 *214:10 0.000221661
4 *214:10 *215:8 0
5 *214:10 *280:14 0.000145238
6 *114:8 *214:10 0
7 *119:12 *214:10 0
8 *120:12 *214:10 0
9 *213:8 *214:10 0
*RES
1 *2489:X *214:10 41.8321 
2 *214:10 *2490:A 38 
*END

*D_NET *215 0.000284984
*CONN
*I *2492:A I *D sky130_fd_sc_hd__buf_8
*I *2491:X O *D sky130_fd_sc_hd__and2_2
*CAP
1 *2492:A 0
2 *2491:X 9.90418e-05
3 *215:8 9.90418e-05
4 *215:8 *216:8 0
5 spine_top_iw[18] *215:8 3.23422e-05
6 *114:8 *215:8 3.59619e-05
7 *120:12 *215:8 1.85961e-05
8 *214:10 *215:8 0
*RES
1 *2491:X *215:8 40.2579 
2 *215:8 *2492:A 38 
*END

*D_NET *216 0.000401781
*CONN
*I *2494:A I *D sky130_fd_sc_hd__buf_8
*I *2493:X O *D sky130_fd_sc_hd__and2_2
*CAP
1 *2494:A 6.79302e-05
2 *2493:X 0.000132961
3 *216:8 0.000200891
4 spine_top_iw[18] *216:8 0
5 *122:12 *216:8 0
6 *215:8 *216:8 0
*RES
1 *2493:X *216:8 40.2579 
2 *216:8 *2494:A 39.0979 
*END

*D_NET *217 0.000239725
*CONN
*I *2496:A I *D sky130_fd_sc_hd__buf_8
*I *2495:X O *D sky130_fd_sc_hd__and2_2
*CAP
1 *2496:A 0
2 *2495:X 0.000119863
3 *217:8 0.000119863
4 *122:12 *217:8 0
5 *203:73 *217:8 0
*RES
1 *2495:X *217:8 39.9057 
2 *217:8 *2496:A 38 
*END

*D_NET *218 0.000243744
*CONN
*I *2498:A I *D sky130_fd_sc_hd__buf_8
*I *2497:X O *D sky130_fd_sc_hd__and2_2
*CAP
1 *2498:A 0
2 *2497:X 0.000115895
3 *218:8 0.000115895
4 *123:12 *218:8 1.19542e-05
5 *124:12 *218:8 0
*RES
1 *2497:X *218:8 40.2579 
2 *218:8 *2498:A 38 
*END

*D_NET *219 0.000570142
*CONN
*I *2500:A I *D sky130_fd_sc_hd__buf_8
*I *2499:X O *D sky130_fd_sc_hd__and2_2
*CAP
1 *2500:A 0
2 *2499:X 0.00022795
3 *219:10 0.00022795
4 *219:10 *220:10 0
5 *219:10 *280:14 9.84851e-05
6 *124:12 *219:10 0
7 *203:60 *219:10 1.57571e-05
*RES
1 *2499:X *219:10 41.8321 
2 *219:10 *2500:A 38 
*END

*D_NET *220 0.00141781
*CONN
*I *2502:A I *D sky130_fd_sc_hd__buf_8
*I *2501:X O *D sky130_fd_sc_hd__and2_2
*CAP
1 *2502:A 0.00013316
2 *2501:X 0.000375503
3 *220:10 0.000508663
4 *220:10 *221:10 7.61276e-05
5 *23:63 *220:10 0.000102389
6 *124:12 *220:10 0
7 *126:12 *220:10 0.000169674
8 *203:45 *220:10 2.92604e-05
9 *203:60 *220:10 2.30292e-05
10 *219:10 *220:10 0
*RES
1 *2501:X *220:10 45.25 
2 *220:10 *2502:A 40.0507 
*END

*D_NET *221 0.00103354
*CONN
*I *2504:A I *D sky130_fd_sc_hd__buf_8
*I *2503:X O *D sky130_fd_sc_hd__and2_2
*CAP
1 *2504:A 0.000118888
2 *2503:X 0.00033084
3 *221:10 0.000449728
4 *221:10 *282:8 5.79559e-05
5 *203:38 *221:10 0
6 *220:10 *221:10 7.61276e-05
*RES
1 *2503:X *221:10 43.6964 
2 *221:10 *2504:A 40.0507 
*END

*D_NET *224 0.00214306
*CONN
*I *2535:CLK I *D sky130_fd_sc_hd__dfrbp_2
*I *2534:D I *D sky130_fd_sc_hd__dfrbp_2
*I *2534:Q_N O *D sky130_fd_sc_hd__dfrbp_2
*CAP
1 *2535:CLK 0
2 *2534:D 4.429e-05
3 *2534:Q_N 0.000217139
4 *224:21 0.000314919
5 *224:8 0.000576348
6 spine_bot_iw[10] *224:21 0.000127606
7 spine_bot_iw[8] *224:21 0
8 spine_bot_iw[9] *224:21 0
9 *2427:A *2534:D 7.52677e-05
10 *2427:A *224:8 0.000156211
11 *2534:RESET_B *224:8 8.79516e-05
12 *11:19 *224:8 8.1796e-05
13 *12:19 *2534:D 0.000103574
14 *12:19 *224:8 0.000357957
15 *53:8 *224:21 0
*RES
1 *2534:Q_N *224:8 30.7886 
2 *224:8 *2534:D 25.0507 
3 *224:8 *224:21 35.4271 
4 *224:21 *2535:CLK 23 
*END

*D_NET *225 0.00241661
*CONN
*I *2535:D I *D sky130_fd_sc_hd__dfrbp_2
*I *2536:CLK I *D sky130_fd_sc_hd__dfrbp_2
*I *2535:Q_N O *D sky130_fd_sc_hd__dfrbp_2
*CAP
1 *2535:D 0
2 *2536:CLK 0
3 *2535:Q_N 0.000600787
4 *225:16 0.000278805
5 *225:8 0.000879592
6 *225:16 *226:6 2.69532e-05
7 *225:16 *226:14 6.93135e-05
8 spine_bot_iw[10] *225:16 0
9 spine_bot_iw[9] *225:16 0.000439095
10 *175:10 *225:16 7.66085e-05
11 *193:8 *225:8 4.54551e-05
*RES
1 *2535:Q_N *225:8 32.6943 
2 *225:8 *225:16 37.83 
3 *225:16 *2536:CLK 23 
4 *225:8 *2535:D 23 
*END

*D_NET *226 0.00284675
*CONN
*I *2536:D I *D sky130_fd_sc_hd__dfrbp_2
*I *2537:CLK I *D sky130_fd_sc_hd__dfrbp_2
*I *2536:Q_N O *D sky130_fd_sc_hd__dfrbp_2
*CAP
1 *2536:D 0
2 *2537:CLK 0
3 *2536:Q_N 0.000776073
4 *226:14 0.000523267
5 *226:6 0.00129934
6 *226:14 *227:26 1.40183e-05
7 spine_bot_iw[10] *226:14 0
8 *173:107 *226:14 0.000137788
9 *225:16 *226:6 2.69532e-05
10 *225:16 *226:14 6.93135e-05
*RES
1 *2536:Q_N *226:6 32.2127 
2 *226:6 *226:14 38.1045 
3 *226:14 *2537:CLK 23 
4 *226:6 *2536:D 23 
*END

*D_NET *227 0.00325729
*CONN
*I *2537:D I *D sky130_fd_sc_hd__dfrbp_2
*I *2538:CLK I *D sky130_fd_sc_hd__dfrbp_2
*I *2537:Q_N O *D sky130_fd_sc_hd__dfrbp_2
*CAP
1 *2537:D 0
2 *2538:CLK 0
3 *2537:Q_N 0.00068491
4 *227:26 0.000545595
5 *227:14 0.00123051
6 *227:26 *2539:CLK 5.83407e-05
7 *227:26 *228:8 1.22822e-05
8 spine_bot_iw[10] *227:26 0.000190003
9 *2538:RESET_B *227:26 0.000141954
10 *21:58 *227:14 0.000331397
11 *21:58 *227:26 2.93845e-05
12 *173:107 *227:14 1.89039e-05
13 *226:14 *227:26 1.40183e-05
*RES
1 *2537:Q_N *227:14 33.8336 
2 *227:14 *227:26 40.3779 
3 *227:26 *2538:CLK 23 
4 *227:14 *2537:D 23 
*END

*D_NET *228 0.00331012
*CONN
*I *2538:D I *D sky130_fd_sc_hd__dfrbp_2
*I *2539:CLK I *D sky130_fd_sc_hd__dfrbp_2
*I *2538:Q_N O *D sky130_fd_sc_hd__dfrbp_2
*CAP
1 *2538:D 0
2 *2539:CLK 0.000897137
3 *2538:Q_N 0.000496078
4 *228:8 0.00139321
5 *2538:RESET_B *228:8 9.98797e-05
6 *2540:RESET_B *2539:CLK 0.000103637
7 *164:89 *228:8 0.000219685
8 *196:8 *228:8 2.98648e-05
9 *227:26 *2539:CLK 5.83407e-05
10 *227:26 *228:8 1.22822e-05
*RES
1 *2538:Q_N *228:8 32.6943 
2 *228:8 *2539:CLK 40.2964 
3 *228:8 *2538:D 23 
*END

*D_NET *229 0.00172545
*CONN
*I *2539:D I *D sky130_fd_sc_hd__dfrbp_2
*I *2540:CLK I *D sky130_fd_sc_hd__dfrbp_2
*I *2539:Q_N O *D sky130_fd_sc_hd__dfrbp_2
*CAP
1 *2539:D 2.5849e-05
2 *2540:CLK 0
3 *2539:Q_N 0.000434184
4 *229:14 0.000285216
5 *229:8 0.000745249
6 *229:8 *230:8 5.70419e-05
7 *2539:RESET_B *229:8 5.03716e-05
8 *2540:RESET_B *2539:D 2.4754e-05
9 *2540:RESET_B *229:8 0.000102783
10 *2540:RESET_B *229:14 0
*RES
1 *2539:Q_N *229:8 32.2179 
2 *229:8 *229:14 35.4271 
3 *229:14 *2540:CLK 23 
4 *229:8 *2539:D 23.6214 
*END

*D_NET *230 0.00251378
*CONN
*I *2549:A I *D sky130_fd_sc_hd__buf_8
*I *2547:A I *D sky130_fd_sc_hd__and2_2
*I *2546:A I *D sky130_fd_sc_hd__inv_2
*I *2539:Q O *D sky130_fd_sc_hd__dfrbp_2
*CAP
1 *2549:A 2.30556e-05
2 *2547:A 0.000123597
3 *2546:A 0.000117291
4 *2539:Q 0.000676797
5 *230:12 0.000454344
6 *230:8 0.000913309
7 *2546:A *238:291 0
8 *2547:A *237:10 2.08324e-05
9 *162:20 *2546:A 4.34173e-05
10 *162:20 *2547:A 8.40914e-05
11 *229:8 *230:8 5.70419e-05
*RES
1 *2539:Q *230:8 34.6 
2 *230:8 *230:12 18.48 
3 *230:12 *2546:A 40.2579 
4 *230:12 *2547:A 41.3143 
5 *230:8 *2549:A 23.4971 
*END

*D_NET *231 0.00154854
*CONN
*I *2541:CLK I *D sky130_fd_sc_hd__dfrbp_2
*I *2540:D I *D sky130_fd_sc_hd__dfrbp_2
*I *2540:Q_N O *D sky130_fd_sc_hd__dfrbp_2
*CAP
1 *2541:CLK 0
2 *2540:D 0.000315164
3 *2540:Q_N 0.000186308
4 *231:21 9.79147e-05
5 *231:8 0.000599387
6 *231:21 *232:21 0
7 *14:34 *231:21 0.000197479
8 *164:39 *231:8 0.000152291
*RES
1 *2540:Q_N *231:8 27.4536 
2 *231:8 *2540:D 28.3857 
3 *231:8 *231:21 32.61 
4 *231:21 *2541:CLK 23 
*END

*D_NET *232 0.00169148
*CONN
*I *2542:CLK I *D sky130_fd_sc_hd__dfrbp_2
*I *2541:D I *D sky130_fd_sc_hd__dfrbp_2
*I *2541:Q_N O *D sky130_fd_sc_hd__dfrbp_2
*CAP
1 *2542:CLK 0
2 *2541:D 0.000166333
3 *2541:Q_N 0.000361977
4 *232:21 0.000297088
5 *232:8 0.000825398
6 *232:21 *233:21 0
7 *2541:RESET_B *232:21 0
8 *14:34 *232:21 0
9 *198:8 *232:8 4.06849e-05
10 *231:21 *232:21 0
*RES
1 *2541:Q_N *232:8 29.8357 
2 *232:8 *2541:D 26.0036 
3 *232:8 *232:21 35.7793 
4 *232:21 *2542:CLK 23 
*END

*D_NET *233 0.00145183
*CONN
*I *2543:CLK I *D sky130_fd_sc_hd__dfrbp_2
*I *2542:D I *D sky130_fd_sc_hd__dfrbp_2
*I *2542:Q_N O *D sky130_fd_sc_hd__dfrbp_2
*CAP
1 *2543:CLK 0
2 *2542:D 0.000145038
3 *2542:Q_N 0.00041761
4 *233:21 0.000138086
5 *233:8 0.000700734
6 *2542:RESET_B *233:8 5.03619e-05
7 *2542:RESET_B *233:21 0
8 *232:21 *233:21 0
*RES
1 *2542:Q_N *233:8 30.3121 
2 *233:8 *2542:D 25.5271 
3 *233:8 *233:21 32.61 
4 *233:21 *2543:CLK 23 
*END

*D_NET *234 0.00117489
*CONN
*I *2543:D I *D sky130_fd_sc_hd__dfrbp_2
*I *2543:Q_N O *D sky130_fd_sc_hd__dfrbp_2
*CAP
1 *2543:D 0
2 *2543:Q_N 0.000587447
3 *234:8 0.000587447
*RES
1 *2543:Q_N *234:8 32.6943 
2 *234:8 *2543:D 23 
*END

*D_NET *235 0.000207634
*CONN
*I *2544:A I *D sky130_fd_sc_hd__and2_2
*I *2546:Y O *D sky130_fd_sc_hd__inv_2
*CAP
1 *2544:A 5.98527e-05
2 *2546:Y 5.98527e-05
3 *2544:A *236:10 6.17437e-06
4 *2544:B *2544:A 8.17546e-05
*RES
1 *2546:Y *2544:A 47.5743 
*END

*D_NET *236 0.000617087
*CONN
*I *2545:A I *D sky130_fd_sc_hd__buf_8
*I *2544:X O *D sky130_fd_sc_hd__and2_2
*CAP
1 *2545:A 0
2 *2544:X 0.000295832
3 *236:10 0.000295832
4 *236:10 *238:291 0
5 *2544:A *236:10 6.17437e-06
6 *2544:B *236:10 1.9248e-05
*RES
1 *2544:X *236:10 42.3086 
2 *236:10 *2545:A 38 
*END

*D_NET *237 0.00481225
*CONN
*I *2548:A I *D sky130_fd_sc_hd__buf_8
*I *2547:X O *D sky130_fd_sc_hd__and2_2
*CAP
1 *2548:A 0.000118858
2 *2547:X 7.69939e-05
3 *237:10 0.00231563
4 *237:8 0.00227376
5 *237:10 *238:12 0
6 *2547:A *237:10 2.08324e-05
7 *162:20 *237:8 6.17437e-06
8 *162:20 *237:10 0
*RES
1 *2547:X *237:8 39.0979 
2 *237:8 *237:10 42.7543 
3 *237:10 *2548:A 40.0507 
*END

*D_NET *238 0.0394708
*CONN
*I *2690:S I *D sky130_fd_sc_hd__mux2_2
*I *2651:S I *D sky130_fd_sc_hd__mux2_2
*I *2652:S I *D sky130_fd_sc_hd__mux2_2
*I *2684:S I *D sky130_fd_sc_hd__mux2_2
*I *2687:S I *D sky130_fd_sc_hd__mux2_2
*I *2685:S I *D sky130_fd_sc_hd__mux2_2
*I *2686:S I *D sky130_fd_sc_hd__mux2_2
*I *2683:S I *D sky130_fd_sc_hd__mux2_2
*I *2688:S I *D sky130_fd_sc_hd__mux2_2
*I *2653:S I *D sky130_fd_sc_hd__mux2_2
*I *2619:S I *D sky130_fd_sc_hd__mux2_2
*I *2620:S I *D sky130_fd_sc_hd__mux2_2
*I *2655:S I *D sky130_fd_sc_hd__mux2_2
*I *2621:S I *D sky130_fd_sc_hd__mux2_2
*I *2622:S I *D sky130_fd_sc_hd__mux2_2
*I *2623:S I *D sky130_fd_sc_hd__mux2_2
*I *2626:S I *D sky130_fd_sc_hd__mux2_2
*I *2656:S I *D sky130_fd_sc_hd__mux2_2
*I *2624:S I *D sky130_fd_sc_hd__mux2_2
*I *2625:S I *D sky130_fd_sc_hd__mux2_2
*I *2658:S I *D sky130_fd_sc_hd__mux2_2
*I *2657:S I *D sky130_fd_sc_hd__mux2_2
*I *2654:S I *D sky130_fd_sc_hd__mux2_2
*I *2689:S I *D sky130_fd_sc_hd__mux2_2
*I *2549:X O *D sky130_fd_sc_hd__buf_8
*CAP
1 *2690:S 0.000869659
2 *2651:S 0
3 *2652:S 0
4 *2684:S 0
5 *2687:S 0.000244761
6 *2685:S 0
7 *2686:S 0.000362762
8 *2683:S 2.34823e-05
9 *2688:S 0
10 *2653:S 0
11 *2619:S 0
12 *2620:S 0
13 *2655:S 0.000398483
14 *2621:S 0.000127372
15 *2622:S 0
16 *2623:S 0
17 *2626:S 0.000194124
18 *2656:S 0
19 *2624:S 0
20 *2625:S 5.66594e-05
21 *2658:S 0
22 *2657:S 0
23 *2654:S 0
24 *2689:S 0
25 *2549:X 7.94774e-05
26 *238:291 0.00153415
27 *238:275 0.000213675
28 *238:267 0.000504615
29 *238:248 0.000553142
30 *238:228 0.000322454
31 *238:224 0.000455721
32 *238:213 0.000605363
33 *238:154 0.000255534
34 *238:141 0.000911494
35 *238:139 0.000461835
36 *238:132 0.000579621
37 *238:126 0.000706317
38 *238:124 0.000596407
39 *238:122 0.000944018
40 *238:113 8.49584e-05
41 *238:100 0.000297224
42 *238:91 0.000299575
43 *238:78 0.000382463
44 *238:76 0.000548852
45 *238:74 0.000524603
46 *238:51 0.000595379
47 *238:45 0.000500725
48 *238:32 0.000901094
49 *238:22 0.00127098
50 *238:16 0.000761664
51 *238:12 0.0022072
52 *238:10 0.00216779
53 *238:6 0.000876846
54 *2621:S *306:20 3.32563e-05
55 *2621:S *306:24 9.84851e-05
56 *2625:S *2625:A1 0.000184735
57 *2625:S *286:8 7.87561e-05
58 *2626:S *308:14 0.000182826
59 *2655:S *309:6 0.000834261
60 *2686:S *2686:A0 2.93747e-05
61 *2686:S *301:10 0.000137651
62 *2687:S *2685:A1 3.22879e-05
63 *2687:S *2687:A1 4.5051e-05
64 *2687:S *258:6 0.000609676
65 *2690:S *2690:A1 0.000139352
66 *238:22 *2688:A0 0.000169595
67 *238:22 *303:10 0.000171512
68 *238:32 *2688:A0 0.000143655
69 *238:32 *271:14 0
70 *238:32 *291:10 4.334e-05
71 *238:32 *292:10 3.47781e-05
72 *238:32 *299:14 0.000468305
73 *238:32 *307:8 3.5664e-05
74 *238:45 *2689:A1 5.3304e-05
75 *238:45 *271:14 0.000218403
76 *238:45 *304:10 4.08537e-05
77 *238:51 *271:14 5.3304e-05
78 *238:51 *304:22 0.000264782
79 *238:74 *304:22 1.22822e-05
80 *238:74 *304:28 0.000316475
81 *238:76 *246:12 9.84794e-05
82 *238:76 *304:28 0.000181584
83 *238:78 *304:28 0.000447905
84 *238:91 *2658:A1 0.000105145
85 *238:91 *276:16 0.000359546
86 *238:91 *285:10 2.17372e-05
87 *238:91 *304:28 0.000166667
88 *238:100 *2625:A1 9.67842e-05
89 *238:100 *2658:A1 2.64616e-05
90 *238:100 *276:16 3.17027e-05
91 *238:113 *244:8 1.58805e-05
92 *238:113 *250:12 0.000163361
93 *238:122 *246:12 0
94 *238:124 *240:10 0
95 *238:124 *246:12 0
96 *238:124 *247:8 2.8936e-05
97 *238:126 *247:8 4.38375e-05
98 *238:126 *248:10 1.01436e-05
99 *238:132 *2656:A0 5.67058e-05
100 *238:132 *2656:A1 3.22879e-05
101 *238:132 *246:12 0
102 *238:132 *248:10 0.000559134
103 *238:132 *284:8 7.88926e-05
104 *238:154 *242:10 8.62783e-05
105 *238:154 *249:10 1.14452e-05
106 *238:154 *259:10 0
107 *238:154 *276:16 0.000208173
108 *238:154 *308:10 0
109 *238:228 *258:6 0.0002263
110 *238:228 *294:10 1.57571e-05
111 *238:248 *263:12 0
112 *238:248 *294:10 6.18399e-05
113 *238:267 *263:12 0
114 *238:267 *279:8 9.84794e-05
115 *238:267 *281:6 0.000189557
116 *238:275 *263:12 3.41998e-06
117 *238:275 *270:14 0
118 *238:275 *277:10 4.08537e-05
119 *238:275 *281:6 2.4732e-05
120 spine_top_ow[3] *238:248 0.000163361
121 spine_top_ow[3] *238:267 6.68498e-05
122 spine_top_ow[8] *238:32 0.000241847
123 spine_top_ow[8] *238:45 4.24694e-06
124 *2395:A *238:248 0.000222104
125 *2406:A *238:248 0.000359786
126 *2406:A *238:267 3.92407e-05
127 *2407:TE_B *238:141 0.000138444
128 *2546:A *238:291 0
129 *2572:DIODE *238:16 9.67842e-05
130 *2572:DIODE *238:22 1.24376e-05
131 *2605:A *238:124 0
132 *2605:A *238:126 0
133 *2605:A *238:141 0.00010018
134 *2611:A *238:132 0
135 *2638:A *238:74 0.00014196
136 *2669:A *2687:S 0.000141052
137 *2670:A *2687:S 0.000141052
138 *2674:A *238:213 6.4393e-05
139 *2674:A *238:224 0.000118797
140 *2674:A *238:228 5.50106e-05
141 *2674:A *238:248 1.12487e-05
142 *2675:A *2686:S 9.84851e-05
143 *2681:A *238:224 0
144 *23:13 *238:113 3.96156e-05
145 *23:15 *238:154 0
146 *23:26 *2690:S 0.00176795
147 *23:49 *238:74 0.000460117
148 *23:49 *238:76 0.000241539
149 *23:49 *238:78 0.000454079
150 *23:49 *238:91 3.83498e-05
151 *23:49 *238:100 1.21972e-05
152 *25:34 *238:45 2.45549e-06
153 *25:38 *238:51 0.000221992
154 *25:38 *238:267 0.000311787
155 *25:38 *238:275 5.56356e-05
156 *91:42 *238:12 5.61311e-05
157 *92:42 *238:132 6.07611e-06
158 *98:26 *238:12 0.00213596
159 *98:26 *238:213 1.12487e-05
160 *98:26 *238:291 0
161 *146:8 *238:124 0
162 *146:19 *238:122 0
163 *146:19 *238:124 0
164 *154:14 *238:267 0
165 *155:10 *238:248 0.000167443
166 *161:36 *238:275 3.70187e-05
167 *162:8 *238:291 0
168 *162:20 *238:12 0
169 *162:20 *238:291 0.000139657
170 *170:10 *238:224 6.28488e-05
171 *170:10 *238:248 2.76611e-06
172 *170:19 *238:248 4.99753e-06
173 *170:48 *2687:S 5.67058e-05
174 *170:62 *238:45 0
175 *171:6 *2626:S 0.000143655
176 *171:15 *2626:S 2.18409e-05
177 *171:15 *238:141 0.000294145
178 *171:132 *238:141 0.000162831
179 *171:171 *238:275 0
180 *236:10 *238:291 0
181 *237:10 *238:12 0
*RES
1 *2549:X *238:6 24.0979 
2 *238:6 *238:10 17.0507 
3 *238:10 *238:12 54.375 
4 *238:12 *238:16 16.0979 
5 *238:16 *238:22 12.6979 
6 *238:22 *238:32 44.8936 
7 *238:32 *2689:S 23 
8 *238:32 *238:45 35.8414 
9 *238:45 *238:51 5.075 
10 *238:51 *2654:S 23 
11 *238:51 *238:74 11.9107 
12 *238:74 *238:76 4.90929 
13 *238:76 *238:78 9.19714 
14 *238:78 *2657:S 23 
15 *238:78 *238:91 6.525 
16 *238:91 *2658:S 23 
17 *238:91 *238:100 3.02429 
18 *238:100 *2625:S 25.0507 
19 *238:100 *238:113 32.2579 
20 *238:113 *2624:S 23 
21 *238:76 *238:122 18.3143 
22 *238:122 *238:124 6.13143 
23 *238:124 *238:126 2.25786 
24 *238:126 *238:132 28.0293 
25 *238:132 *2656:S 23 
26 *238:126 *238:139 15 
27 *238:139 *238:141 11.5793 
28 *238:141 *2626:S 27.4329 
29 *238:141 *238:154 35.7793 
30 *238:154 *2623:S 23 
31 *238:139 *2622:S 23 
32 *238:124 *2621:S 40.0714 
33 *238:122 *2655:S 47.1971 
34 *238:76 *2620:S 23 
35 *238:74 *2619:S 23 
36 *238:45 *2653:S 23 
37 *238:22 *2688:S 23 
38 *238:16 *2683:S 23.4971 
39 *238:12 *238:213 2.25786 
40 *238:213 *2686:S 44.3386 
41 *238:213 *238:224 3.31429 
42 *238:224 *238:228 17.5271 
43 *238:228 *2685:S 23 
44 *238:228 *2687:S 31.9071 
45 *238:224 *238:248 8.24429 
46 *238:248 *2684:S 38 
47 *238:248 *238:267 23.41 
48 *238:267 *238:275 33.9357 
49 *238:275 *2652:S 23 
50 *238:267 *2651:S 23 
51 *238:6 *238:291 43.1743 
52 *238:291 *2690:S 42.6786 
*END

*D_NET *239 0.00398095
*CONN
*I *2619:A0 I *D sky130_fd_sc_hd__mux2_2
*I *2603:X O *D sky130_fd_sc_hd__buf_2
*CAP
1 *2619:A0 0
2 *2603:X 9.04885e-05
3 *239:12 0.00152501
4 *239:8 0.0016155
5 *239:12 *246:12 0
6 *239:12 *255:10 0
7 *239:12 *256:10 0
8 *239:12 *267:8 0.000225275
9 *239:12 *274:8 0.000147267
10 *239:12 *304:22 0
11 spine_top_ow[14] *239:12 0
12 *2555:DIODE *239:8 1.94812e-05
13 *2584:DIODE *239:12 0
14 *2645:A *239:12 0
15 *2646:A *239:12 0.00035793
16 *84:22 *239:12 0
*RES
1 *2603:X *239:8 39.0979 
2 *239:8 *239:12 45.0771 
3 *239:12 *2619:A0 23 
*END

*D_NET *240 0.000569611
*CONN
*I *2621:A1 I *D sky130_fd_sc_hd__mux2_2
*I *2604:X O *D sky130_fd_sc_hd__buf_2
*CAP
1 *2621:A1 0
2 *2604:X 0.000143723
3 *240:10 0.000143723
4 *240:10 *246:12 0.000191148
5 *240:10 *247:8 6.16439e-05
6 *240:10 *305:12 2.93747e-05
7 *238:124 *240:10 0
*RES
1 *2604:X *240:10 41.2314 
2 *240:10 *2621:A1 38 
*END

*D_NET *241 0.000438858
*CONN
*I *2622:A1 I *D sky130_fd_sc_hd__mux2_2
*I *2605:X O *D sky130_fd_sc_hd__buf_2
*CAP
1 *2622:A1 0.000127166
2 *2605:X 0.000127166
3 *171:132 *2622:A1 0.000184527
*RES
1 *2605:X *2622:A1 48.0507 
*END

*D_NET *242 0.000465682
*CONN
*I *2623:A1 I *D sky130_fd_sc_hd__mux2_2
*I *2606:X O *D sky130_fd_sc_hd__buf_2
*CAP
1 *2623:A1 0
2 *2606:X 0.000129056
3 *242:10 0.000129056
4 *242:10 *259:10 2.5415e-05
5 *242:10 *303:16 9.5877e-05
6 *238:154 *242:10 8.62783e-05
*RES
1 *2606:X *242:10 40.2993 
2 *242:10 *2623:A1 38 
*END

*D_NET *243 0.000400974
*CONN
*I *2624:A1 I *D sky130_fd_sc_hd__mux2_2
*I *2607:X O *D sky130_fd_sc_hd__buf_2
*CAP
1 *2624:A1 0.000152353
2 *2607:X 0.000152353
3 *24:30 *2624:A1 9.62666e-05
*RES
1 *2607:X *2624:A1 48.0507 
*END

*D_NET *244 0.00109417
*CONN
*I *2625:A1 I *D sky130_fd_sc_hd__mux2_2
*I *2608:X O *D sky130_fd_sc_hd__buf_2
*CAP
1 *2625:A1 0.000183888
2 *2608:X 8.5361e-05
3 *244:8 0.000269249
4 *2625:A1 *286:8 1.41077e-05
5 *244:8 *250:12 4.98543e-05
6 *2625:S *2625:A1 0.000184735
7 *23:13 *244:8 0.00010579
8 *23:15 *244:8 8.85189e-05
9 *238:100 *2625:A1 9.67842e-05
10 *238:113 *244:8 1.58805e-05
*RES
1 *2608:X *244:8 40.61 
2 *244:8 *2625:A1 41.48 
*END

*D_NET *245 0.000171764
*CONN
*I *2626:A1 I *D sky130_fd_sc_hd__mux2_2
*I *2609:X O *D sky130_fd_sc_hd__buf_2
*CAP
1 *2626:A1 0
2 *2609:X 4.25419e-05
3 *245:8 4.25419e-05
4 *245:8 *250:12 4.334e-05
5 *23:15 *245:8 4.334e-05
*RES
1 *2609:X *245:8 39.2014 
2 *245:8 *2626:A1 38 
*END

*D_NET *246 0.00333967
*CONN
*I *2620:A0 I *D sky130_fd_sc_hd__mux2_2
*I *2610:X O *D sky130_fd_sc_hd__buf_2
*CAP
1 *2620:A0 0
2 *2610:X 0
3 *246:12 0.0013149
4 *246:6 0.0013149
5 *246:12 *247:8 0.000260111
6 *246:12 *248:10 0
7 *246:12 *256:10 6.16439e-05
8 *246:12 *267:8 0
9 *246:12 *274:8 0
10 *246:12 *304:28 9.84794e-05
11 *92:42 *246:12 0
12 *146:19 *246:12 0
13 *238:76 *246:12 9.84794e-05
14 *238:122 *246:12 0
15 *238:124 *246:12 0
16 *238:132 *246:12 0
17 *239:12 *246:12 0
18 *240:10 *246:12 0.000191148
*RES
1 *2610:X *246:6 38 
2 *246:6 *246:12 40.8929 
3 *246:12 *2620:A0 23 
*END

*D_NET *247 0.00133711
*CONN
*I *2621:A0 I *D sky130_fd_sc_hd__mux2_2
*I *2611:X O *D sky130_fd_sc_hd__buf_2
*CAP
1 *2621:A0 3.80122e-05
2 *2611:X 0.000318173
3 *247:8 0.000356185
4 *2621:A0 *306:20 5.3304e-05
5 *247:8 *248:10 0.000176903
6 *238:124 *247:8 2.8936e-05
7 *238:126 *247:8 4.38375e-05
8 *240:10 *247:8 6.16439e-05
9 *246:12 *247:8 0.000260111
*RES
1 *2611:X *247:8 45.8921 
2 *247:8 *2621:A0 38.6214 
*END

*D_NET *248 0.00140502
*CONN
*I *2622:A0 I *D sky130_fd_sc_hd__mux2_2
*I *2612:X O *D sky130_fd_sc_hd__buf_2
*CAP
1 *2622:A0 0
2 *2612:X 0.000301912
3 *248:10 0.000301912
4 *248:10 *284:8 5.50106e-05
5 *238:126 *248:10 1.01436e-05
6 *238:132 *248:10 0.000559134
7 *246:12 *248:10 0
8 *247:8 *248:10 0.000176903
*RES
1 *2612:X *248:10 46.1614 
2 *248:10 *2622:A0 38 
*END

*D_NET *249 0.000971224
*CONN
*I *2623:A0 I *D sky130_fd_sc_hd__mux2_2
*I *2613:X O *D sky130_fd_sc_hd__buf_2
*CAP
1 *2623:A0 0
2 *2613:X 0.000352012
3 *249:10 0.000352012
4 *249:10 *2664:A 0
5 *249:10 *276:16 1.02387e-05
6 *2614:A *249:10 0.000103637
7 *2615:A *249:10 0.000141879
8 *2648:A *249:10 0
9 *23:15 *249:10 0
10 *238:154 *249:10 1.14452e-05
*RES
1 *2613:X *249:10 44.7736 
2 *249:10 *2623:A0 38 
*END

*D_NET *250 0.00391943
*CONN
*I *2624:A0 I *D sky130_fd_sc_hd__mux2_2
*I *2614:X O *D sky130_fd_sc_hd__buf_2
*CAP
1 *2624:A0 0
2 *2614:X 0.000282007
3 *250:12 0.00101323
4 *250:8 0.00129523
5 *250:12 *251:12 0
6 *250:12 *252:8 0.000569909
7 pad_uio_oe_n[4] *250:12 0.000488549
8 *2566:DIODE *250:8 1.39431e-05
9 *23:13 *250:12 0
10 *23:15 *250:12 0
11 *24:13 *250:12 0
12 *24:15 *250:12 0
13 *238:113 *250:12 0.000163361
14 *244:8 *250:12 4.98543e-05
15 *245:8 *250:12 4.334e-05
*RES
1 *2614:X *250:8 41.48 
2 *250:8 *250:12 39.795 
3 *250:12 *2624:A0 23 
*END

*D_NET *251 0.00297496
*CONN
*I *2625:A0 I *D sky130_fd_sc_hd__mux2_2
*I *2615:X O *D sky130_fd_sc_hd__buf_2
*CAP
1 *2625:A0 0
2 *2615:X 0.000272436
3 *251:12 0.000882247
4 *251:8 0.00115468
5 *251:12 *262:8 0.000246748
6 pad_uio_oe_n[4] *251:12 0.000366265
7 *2616:A *251:8 5.25848e-05
8 *24:15 *251:12 0
9 *250:12 *251:12 0
*RES
1 *2615:X *251:8 42.4329 
2 *251:8 *251:12 34.1607 
3 *251:12 *2625:A0 23 
*END

*D_NET *252 0.00116394
*CONN
*I *2626:A0 I *D sky130_fd_sc_hd__mux2_2
*I *2616:X O *D sky130_fd_sc_hd__buf_2
*CAP
1 *2626:A0 0
2 *2616:X 0.000201459
3 *252:8 0.000201459
4 *23:15 *252:8 0.000191112
5 *250:12 *252:8 0.000569909
*RES
1 *2616:X *252:8 45.54 
2 *252:8 *2626:A0 38 
*END

*D_NET *253 0.000397255
*CONN
*I *2619:A1 I *D sky130_fd_sc_hd__mux2_2
*I *2617:X O *D sky130_fd_sc_hd__buf_2
*CAP
1 *2619:A1 0
2 *2617:X 0.000149388
3 *253:10 0.000149388
4 *253:10 *254:8 0
5 *2638:A *253:10 0
6 *170:76 *253:10 9.84794e-05
*RES
1 *2617:X *253:10 40.2993 
2 *253:10 *2619:A1 38 
*END

*D_NET *254 0.000886313
*CONN
*I *2620:A1 I *D sky130_fd_sc_hd__mux2_2
*I *2618:X O *D sky130_fd_sc_hd__buf_2
*CAP
1 *2620:A1 9.21973e-05
2 *2618:X 0.0002587
3 *254:8 0.000350897
4 *2620:A1 *304:28 0.000143655
5 *254:8 *309:14 0
6 *24:36 *254:8 0
7 *144:22 *254:8 4.08641e-05
8 *146:19 *254:8 0
9 *253:10 *254:8 0
*RES
1 *2618:X *254:8 42.0186 
2 *254:8 *2620:A1 39.5743 
*END

*D_NET *255 0.027535
*CONN
*I *2627:A I *D sky130_fd_sc_hd__bufinv_8
*I *2619:X O *D sky130_fd_sc_hd__mux2_2
*CAP
1 *2627:A 0
2 *2619:X 1.22261e-05
3 *255:18 0.00575972
4 *255:10 0.00577195
5 *255:10 *304:22 2.26406e-05
6 *255:18 *256:18 0.00958558
7 *255:18 *279:8 0.000347493
8 *255:18 *279:16 0.000228742
9 *255:18 *281:6 0.000303628
10 *255:18 *281:14 0.000112764
11 *255:18 *282:10 0.000230326
12 *255:18 *304:22 0.000116709
13 spine_top_ow[3] *255:18 4.5093e-05
14 spine_top_ow[4] *255:18 2.42363e-05
15 spine_top_ow[5] *255:18 2.74535e-05
16 spine_top_ow[6] *255:18 5.55204e-05
17 *17:31 *255:18 0.000271106
18 *18:53 *255:18 0
19 *19:9 *255:18 6.52316e-05
20 *19:25 *255:18 0.00394212
21 *20:11 *255:18 0.000499655
22 *25:38 *255:18 0.000112764
23 *239:12 *255:10 0
*RES
1 *2619:X *255:10 46.3211 
2 *255:10 *255:18 49.1987 
3 *255:18 *2627:A 23 
*END

*D_NET *256 0.0243101
*CONN
*I *2628:A I *D sky130_fd_sc_hd__bufinv_8
*I *2620:X O *D sky130_fd_sc_hd__mux2_2
*CAP
1 *2628:A 0.000237782
2 *2620:X 4.95641e-05
3 *256:18 0.00603469
4 *256:10 0.00584647
5 *256:18 *280:20 0
6 *256:18 *282:8 0.000444126
7 *256:18 *304:28 0.000100139
8 pad_uio_oe_n[3] *256:18 0
9 spine_top_iw[13] *256:18 0.000193039
10 spine_top_iw[17] *256:18 0
11 spine_top_iw[19] *256:18 5.10636e-05
12 spine_top_ow[13] *256:18 0
13 spine_top_ow[15] *256:18 0
14 spine_top_ow[1] *256:18 0
15 spine_top_ow[7] *256:18 0
16 spine_top_ow[8] *256:18 0
17 spine_top_ow[9] *256:18 0
18 *9:41 *256:18 0.000130187
19 *17:31 *256:18 0.000420862
20 *18:53 *256:18 0.00095849
21 *20:43 *256:18 0.000112764
22 *28:8 *256:18 8.36704e-05
23 *119:12 *256:18 0
24 *120:12 *256:18 0
25 *122:12 *256:18 0
26 *123:12 *256:18 0
27 *146:19 *256:10 0
28 *154:39 *256:18 0
29 *239:12 *256:10 0
30 *246:12 *256:10 6.16439e-05
31 *255:18 *256:18 0.00958558
*RES
1 *2620:X *256:10 47.0254 
2 *256:10 *256:18 47.464 
3 *256:18 *2628:A 26.9564 
*END

*D_NET *257 0.0143432
*CONN
*I *2629:A I *D sky130_fd_sc_hd__bufinv_8
*I *2621:X O *D sky130_fd_sc_hd__mux2_2
*CAP
1 *2629:A 0
2 *2621:X 0
3 *257:14 0.000600078
4 *257:6 0.00578184
5 *257:4 0.00518176
6 *257:6 *306:20 0.000590473
7 spine_top_iw[3] *257:14 0.000192681
8 *2414:A *257:6 2.02872e-05
9 *2506:A *257:6 2.93747e-05
10 *21:28 *257:14 0.00033219
11 *128:8 *257:14 0.000222104
12 *155:10 *257:6 0.000138444
13 *156:28 *257:6 5.50106e-05
14 *170:23 *257:6 4.5051e-05
15 *171:167 *257:6 0.000310636
16 *171:212 *257:6 0.00064894
17 *171:219 *257:6 5.50106e-05
18 *171:228 *257:6 0.000139346
*RES
1 *2621:X *257:4 23 
2 *257:4 *257:6 88.7607 
3 *257:6 *257:14 44.7486 
4 *257:14 *2629:A 23 
*END

*D_NET *258 0.0153739
*CONN
*I *2630:A I *D sky130_fd_sc_hd__bufinv_8
*I *2622:X O *D sky130_fd_sc_hd__mux2_2
*CAP
1 *2630:A 0
2 *2622:X 0
3 *258:12 0.000182585
4 *258:6 0.00498832
5 *258:4 0.00480574
6 *2361:A *258:6 2.93431e-05
7 *2399:TE_B *258:6 0.000787965
8 *2479:B *258:6 3.53115e-05
9 *2687:S *258:6 0.000609676
10 *13:57 *258:6 0.0026163
11 *22:30 *258:12 0
12 *147:8 *258:6 2.7237e-05
13 *160:8 *258:6 5.3304e-05
14 *169:10 *258:6 0.000363783
15 *170:48 *258:6 0.000545541
16 *171:132 *258:6 5.29672e-05
17 *171:139 *258:6 4.95081e-05
18 *238:228 *258:6 0.0002263
*RES
1 *2622:X *258:4 23 
2 *258:4 *258:6 94.9543 
3 *258:6 *258:12 33.3143 
4 *258:12 *2630:A 23 
*END

*D_NET *259 0.000563362
*CONN
*I *2631:A I *D sky130_fd_sc_hd__bufinv_8
*I *2623:X O *D sky130_fd_sc_hd__mux2_2
*CAP
1 *2631:A 0
2 *2623:X 0.000159503
3 *259:10 0.000159503
4 *259:10 *2664:A 2.74447e-05
5 *259:10 *308:10 0.000191497
6 *238:154 *259:10 0
7 *242:10 *259:10 2.5415e-05
*RES
1 *2623:X *259:10 41.0554 
2 *259:10 *2631:A 38 
*END

*D_NET *260 0.00119461
*CONN
*I *2632:A I *D sky130_fd_sc_hd__bufinv_8
*I *2624:X O *D sky130_fd_sc_hd__mux2_2
*CAP
1 *2632:A 0
2 *2624:X 0.00033304
3 *260:10 0.00033304
4 *260:10 *286:14 0.000168195
5 *260:10 *304:36 0.00036034
6 *24:13 *260:10 0
*RES
1 *2624:X *260:10 44.2143 
2 *260:10 *2632:A 38 
*END

*D_NET *261 0.00120296
*CONN
*I *2633:A I *D sky130_fd_sc_hd__bufinv_8
*I *2625:X O *D sky130_fd_sc_hd__mux2_2
*CAP
1 *2633:A 0
2 *2625:X 0.000571015
3 *261:10 0.000571015
4 *261:10 *286:8 6.09272e-05
5 *261:10 *286:14 0
*RES
1 *2625:X *261:10 46.1511 
2 *261:10 *2633:A 38 
*END

*D_NET *262 0.00247935
*CONN
*I *2634:A I *D sky130_fd_sc_hd__bufinv_8
*I *2626:X O *D sky130_fd_sc_hd__mux2_2
*CAP
1 *2634:A 0.000407227
2 *2626:X 8.10417e-05
3 *262:8 0.000488269
4 *2634:A *306:24 0.00100932
5 pad_uio_oe_n[4] *262:8 0.000246748
6 *251:12 *262:8 0.000246748
*RES
1 *2626:X *262:8 41.3143 
2 *262:8 *2634:A 49.1029 
*END

*D_NET *263 0.00328357
*CONN
*I *2651:A0 I *D sky130_fd_sc_hd__mux2_2
*I *2635:Y O *D sky130_fd_sc_hd__inv_2
*CAP
1 *2651:A0 0
2 *2635:Y 4.96829e-05
3 *263:12 0.000966459
4 *263:8 0.00101614
5 *263:12 *270:14 0
6 *263:12 *288:10 9.94908e-05
7 *263:12 *289:8 0
8 *263:12 *295:10 0.000140958
9 *263:12 *296:8 0
10 *263:12 *305:8 0
11 spine_top_ow[4] *263:12 0.000171719
12 spine_top_ow[5] *263:12 0
13 *2674:A *263:12 0
14 *2675:A *263:12 0.000567678
15 *2676:A *263:12 0
16 *156:8 *263:12 4.59027e-05
17 *156:28 *263:12 0.000222113
18 *157:23 *263:12 0
19 *238:248 *263:12 0
20 *238:267 *263:12 0
21 *238:275 *263:12 3.41998e-06
*RES
1 *2635:Y *263:8 38.6214 
2 *263:8 *263:12 36.6257 
3 *263:12 *2651:A0 23 
*END

*D_NET *264 0.000838052
*CONN
*I *2653:A1 I *D sky130_fd_sc_hd__mux2_2
*I *2636:Y O *D sky130_fd_sc_hd__inv_2
*CAP
1 *2653:A1 0.000207254
2 *2636:Y 4.36871e-05
3 *264:8 0.000250941
4 *2653:A1 *282:8 0.000177438
5 *264:8 *265:8 2.79004e-05
6 *264:8 *292:10 8.62876e-05
7 *25:38 *2653:A1 4.45437e-05
*RES
1 *2636:Y *264:8 39.2014 
2 *264:8 *2653:A1 41.0036 
*END

*D_NET *265 0.000162183
*CONN
*I *2654:A1 I *D sky130_fd_sc_hd__mux2_2
*I *2637:Y O *D sky130_fd_sc_hd__inv_2
*CAP
1 *2654:A1 0
2 *2637:Y 4.54714e-05
3 *265:8 4.54714e-05
4 *23:55 *265:8 4.334e-05
5 *264:8 *265:8 2.79004e-05
*RES
1 *2637:Y *265:8 39.2014 
2 *265:8 *2654:A1 38 
*END

*D_NET *266 0.000913972
*CONN
*I *2655:A1 I *D sky130_fd_sc_hd__mux2_2
*I *2638:Y O *D sky130_fd_sc_hd__inv_2
*CAP
1 *2655:A1 0.00014937
2 *2638:Y 0.000175864
3 *266:8 0.000325234
4 *2655:A1 *273:14 0.000141954
5 *2655:A1 *309:6 4.95081e-05
6 *266:8 *272:10 0
7 *266:8 *273:14 3.47781e-05
8 *266:8 *283:10 3.72639e-05
*RES
1 *2638:Y *266:8 40.9621 
2 *266:8 *2655:A1 40.5271 
*END

*D_NET *267 0.000783911
*CONN
*I *2656:A1 I *D sky130_fd_sc_hd__mux2_2
*I *2639:Y O *D sky130_fd_sc_hd__inv_2
*CAP
1 *2656:A1 0.000119997
2 *2639:Y 9.09405e-05
3 *267:8 0.000210937
4 *2656:A1 *2656:A0 1.40958e-05
5 *267:8 *274:8 9.03784e-05
6 *238:132 *2656:A1 3.22879e-05
7 *239:12 *267:8 0.000225275
8 *246:12 *267:8 0
*RES
1 *2639:Y *267:8 40.9621 
2 *267:8 *2656:A1 39.5743 
*END

*D_NET *268 0.00139327
*CONN
*I *2657:A1 I *D sky130_fd_sc_hd__mux2_2
*I *2640:Y O *D sky130_fd_sc_hd__inv_2
*CAP
1 *2657:A1 0.000306027
2 *2640:Y 0.00014548
3 *268:8 0.000451506
4 *2657:A1 *304:28 0.000444686
5 *148:21 *268:8 4.55681e-05
6 *170:135 *268:8 0
*RES
1 *2640:Y *268:8 40.2579 
2 *268:8 *2657:A1 42.9093 
*END

*D_NET *269 0.00150573
*CONN
*I *2658:A1 I *D sky130_fd_sc_hd__mux2_2
*I *2641:Y O *D sky130_fd_sc_hd__inv_2
*CAP
1 *2658:A1 0.000312341
2 *2641:Y 0.000151599
3 *269:8 0.00046394
4 *2658:A1 *285:10 1.01436e-05
5 *2658:A1 *304:28 5.50106e-05
6 *269:8 *304:36 0.000185755
7 *2409:TE_B *269:8 0
8 *143:8 *269:8 8.85189e-05
9 *171:47 *269:8 3.98859e-05
10 *171:64 *269:8 5.09988e-05
11 *171:80 *269:8 1.59312e-05
12 *238:91 *2658:A1 0.000105145
13 *238:100 *2658:A1 2.64616e-05
*RES
1 *2641:Y *269:8 42.0186 
2 *269:8 *2658:A1 42.4329 
*END

*D_NET *270 0.00429651
*CONN
*I *2652:A0 I *D sky130_fd_sc_hd__mux2_2
*I *2642:Y O *D sky130_fd_sc_hd__inv_2
*CAP
1 *2652:A0 0
2 *2642:Y 7.67297e-05
3 *270:14 0.0012668
4 *270:8 0.00134353
5 *270:14 *2652:A1 0.000186733
6 *270:14 *277:10 5.50106e-05
7 *270:14 *289:8 9.52677e-05
8 *270:14 *296:8 0
9 *270:14 *297:10 0
10 *270:14 *298:8 0
11 *270:14 *303:10 0.000114083
12 *270:14 *305:8 0
13 spine_top_ow[5] *270:14 5.52483e-05
14 *2575:DIODE *270:14 0.000128661
15 *2649:A *270:14 0.000186442
16 *2650:A *270:14 0.000100803
17 *2670:A *270:14 9.06719e-05
18 *2676:A *270:14 0
19 *2677:A *270:14 7.28526e-05
20 *24:48 *270:14 5.75997e-05
21 *81:39 *270:8 2.30292e-05
22 *157:23 *270:14 6.78567e-05
23 *171:171 *270:14 0.000375183
24 *238:275 *270:14 0
25 *263:12 *270:14 0
*RES
1 *2642:Y *270:8 39.0979 
2 *270:8 *270:14 44 
3 *270:14 *2652:A0 23 
*END

*D_NET *271 0.00349921
*CONN
*I *2653:A0 I *D sky130_fd_sc_hd__mux2_2
*I *2643:Y O *D sky130_fd_sc_hd__inv_2
*CAP
1 *2653:A0 0
2 *2643:Y 0
3 *271:14 0.00108642
4 *271:6 0.00108642
5 *271:14 *291:10 4.08537e-05
6 *271:14 *297:10 0
7 *271:14 *298:8 0.000128524
8 *271:14 *299:14 0
9 *271:14 *304:22 9.88081e-05
10 *271:14 *306:10 4.6323e-05
11 *271:14 *307:8 0.000114092
12 spine_top_ow[8] *271:14 0.000366716
13 *2677:A *271:14 0
14 *2679:A *271:14 8.41115e-05
15 *25:38 *271:14 2.32101e-05
16 *81:39 *271:14 4.58924e-05
17 *160:10 *271:14 0
18 *170:62 *271:14 0
19 *171:156 *271:14 0.000106121
20 *238:32 *271:14 0
21 *238:45 *271:14 0.000218403
22 *238:51 *271:14 5.3304e-05
*RES
1 *2643:Y *271:6 38 
2 *271:6 *271:14 40.6857 
3 *271:14 *2653:A0 23 
*END

*D_NET *272 0.00368659
*CONN
*I *2654:A0 I *D sky130_fd_sc_hd__mux2_2
*I *2644:Y O *D sky130_fd_sc_hd__inv_2
*CAP
1 *2654:A0 0
2 *2644:Y 0
3 *272:10 0.00077256
4 *272:6 0.00077256
5 *272:10 *273:14 0
6 *272:10 *283:10 0
7 *272:10 *292:10 0
8 *272:10 *299:14 0.00137568
9 *23:55 *272:10 3.41998e-06
10 *25:34 *272:10 3.73876e-05
11 *160:10 *272:10 0.000724977
12 *266:8 *272:10 0
*RES
1 *2644:Y *272:6 38 
2 *272:6 *272:10 36.6257 
3 *272:10 *2654:A0 23 
*END

*D_NET *273 0.00250298
*CONN
*I *2655:A0 I *D sky130_fd_sc_hd__mux2_2
*I *2645:Y O *D sky130_fd_sc_hd__inv_2
*CAP
1 *2655:A0 0
2 *2645:Y 4.96829e-05
3 *273:14 0.000951092
4 *273:8 0.00100077
5 *273:14 *283:10 0.000141879
6 *273:14 *309:6 0.00018282
7 *2584:DIODE *273:14 0
8 *2655:A1 *273:14 0.000141954
9 *160:10 *273:14 0
10 *266:8 *273:14 3.47781e-05
11 *272:10 *273:14 0
*RES
1 *2645:Y *273:8 38.6214 
2 *273:8 *273:14 32.69 
3 *273:14 *2655:A0 23 
*END

*D_NET *274 0.000818557
*CONN
*I *2656:A0 I *D sky130_fd_sc_hd__mux2_2
*I *2646:Y O *D sky130_fd_sc_hd__inv_2
*CAP
1 *2656:A0 4.98019e-05
2 *2646:Y 0.000205253
3 *274:8 0.000255055
4 *2656:A1 *2656:A0 1.40958e-05
5 *238:132 *2656:A0 5.67058e-05
6 *239:12 *274:8 0.000147267
7 *246:12 *274:8 0
8 *267:8 *274:8 9.03784e-05
*RES
1 *2646:Y *274:8 43.075 
2 *274:8 *2656:A0 39.0979 
*END

*D_NET *275 0.00394991
*CONN
*I *2657:A0 I *D sky130_fd_sc_hd__mux2_2
*I *2647:Y O *D sky130_fd_sc_hd__inv_2
*CAP
1 *2657:A0 0
2 *2647:Y 0.00025364
3 *275:12 0.000496928
4 *275:8 0.000750568
5 *275:8 *308:10 0.000404502
6 *275:12 *276:16 0.00115329
7 *2407:TE_B *275:12 0.00021356
8 *149:8 *275:12 0.000166532
9 *170:99 *275:12 0.000422638
10 *171:47 *275:12 8.82524e-05
*RES
1 *2647:Y *275:8 42.4329 
2 *275:8 *275:12 30.9914 
3 *275:12 *2657:A0 23 
*END

*D_NET *276 0.00386352
*CONN
*I *2658:A0 I *D sky130_fd_sc_hd__mux2_2
*I *2648:Y O *D sky130_fd_sc_hd__inv_2
*CAP
1 *2658:A0 0
2 *2648:Y 3.12971e-05
3 *276:16 0.000795247
4 *276:8 0.000826544
5 *276:8 *2664:A 3.5082e-05
6 *276:16 *2664:A 1.19796e-05
7 spine_top_ow[24] *276:16 0
8 *2648:A *276:16 0
9 *23:15 *276:16 0
10 *23:49 *276:16 0.000400412
11 *150:8 *276:16 0
12 *151:17 *276:16 0
13 *152:20 *276:16 0
14 *238:91 *276:16 0.000359546
15 *238:100 *276:16 3.17027e-05
16 *238:154 *276:16 0.000208173
17 *249:10 *276:16 1.02387e-05
18 *275:12 *276:16 0.00115329
*RES
1 *2648:Y *276:8 38.6214 
2 *276:8 *276:16 36.9779 
3 *276:16 *2658:A0 23 
*END

*D_NET *277 0.000855408
*CONN
*I *2651:A1 I *D sky130_fd_sc_hd__mux2_2
*I *2649:Y O *D sky130_fd_sc_hd__inv_2
*CAP
1 *2651:A1 0
2 *2649:Y 0.000276243
3 *277:10 0.000276243
4 *277:10 *280:6 0.000135584
5 *2649:A *277:10 7.14736e-05
6 *238:275 *277:10 4.08537e-05
7 *270:14 *277:10 5.50106e-05
*RES
1 *2649:Y *277:10 42.6814 
2 *277:10 *2651:A1 38 
*END

*D_NET *278 0.000447487
*CONN
*I *2652:A1 I *D sky130_fd_sc_hd__mux2_2
*I *2650:Y O *D sky130_fd_sc_hd__inv_2
*CAP
1 *2652:A1 0.000130377
2 *2650:Y 0.000130377
3 *270:14 *2652:A1 0.000186733
*RES
1 *2650:Y *2652:A1 48.0507 
*END

*D_NET *279 0.0166901
*CONN
*I *2659:A I *D sky130_fd_sc_hd__bufinv_8
*I *2651:X O *D sky130_fd_sc_hd__mux2_2
*CAP
1 *2659:A 0
2 *2651:X 0
3 *279:16 0.000175641
4 *279:10 0.00380722
5 *279:8 0.00434381
6 *279:4 0.000712227
7 *279:8 *281:6 0.00248575
8 *279:8 *282:8 0.000472317
9 *279:8 *282:10 0.000507983
10 *279:10 *282:10 0.00195731
11 *2503:B *279:8 0.000144501
12 *9:41 *279:10 0.000407759
13 *18:53 *279:16 0
14 *19:25 *279:10 0.000340482
15 *20:11 *279:10 0.000103427
16 *25:38 *279:8 0.000400883
17 *203:73 *279:8 0.000156058
18 *238:267 *279:8 9.84794e-05
19 *255:18 *279:8 0.000347493
20 *255:18 *279:16 0.000228742
*RES
1 *2651:X *279:4 23 
2 *279:4 *279:8 32.8011 
3 *279:8 *279:10 55.6489 
4 *279:10 *279:16 33.6664 
5 *279:16 *2659:A 23 
*END

*D_NET *280 0.0135465
*CONN
*I *2660:A I *D sky130_fd_sc_hd__bufinv_8
*I *2652:X O *D sky130_fd_sc_hd__mux2_2
*CAP
1 *2660:A 0
2 *2652:X 0.000667105
3 *280:20 0.000295366
4 *280:14 0.00333222
5 *280:12 0.00311071
6 *280:6 0.000740957
7 *2649:A *280:6 9.21099e-05
8 *8:41 *280:14 0.00121498
9 *22:21 *280:14 2.75849e-05
10 *23:63 *280:6 7.43025e-06
11 *24:48 *280:6 0.000278754
12 *28:8 *280:20 0
13 *37:12 *280:20 0
14 *203:38 *280:6 5.56356e-05
15 *203:45 *280:6 0.000262409
16 *203:60 *280:6 0.000128723
17 *203:60 *280:14 0.000399141
18 *203:82 *280:14 0.000749695
19 *203:91 *280:14 0.000317767
20 *203:102 *280:14 0.00031388
21 *203:109 *280:14 0.000120708
22 *203:192 *280:14 0.000177741
23 *203:205 *280:14 0.000442175
24 *203:212 *280:14 0.000289425
25 *205:10 *280:14 0.000142636
26 *214:10 *280:14 0.000145238
27 *219:10 *280:14 9.84851e-05
28 *256:18 *280:20 0
29 *277:10 *280:6 0.000135584
*RES
1 *2652:X *280:6 37.3446 
2 *280:6 *280:12 31.2014 
3 *280:12 *280:14 67.7979 
4 *280:14 *280:20 35.075 
5 *280:20 *2660:A 23 
*END

*D_NET *281 0.0175432
*CONN
*I *2661:A I *D sky130_fd_sc_hd__bufinv_8
*I *2653:X O *D sky130_fd_sc_hd__mux2_2
*CAP
1 *2661:A 0
2 *2653:X 0
3 *281:22 0.000886651
4 *281:14 0.00164492
5 *281:12 0.000847014
6 *281:6 0.0022477
7 *281:4 0.00215895
8 *281:14 *282:10 0.00372703
9 *281:22 *2663:A 0
10 *281:22 *282:16 0
11 spine_top_iw[19] *281:12 0
12 *9:41 *281:14 0.00165368
13 *17:31 *281:22 4.30908e-05
14 *20:43 *281:14 0.0010329
15 *21:34 *281:12 2.44117e-05
16 *22:30 *281:22 0
17 *25:38 *281:6 0.000160426
18 *38:8 *281:22 0
19 *238:267 *281:6 0.000189557
20 *238:275 *281:6 2.4732e-05
21 *255:18 *281:6 0.000303628
22 *255:18 *281:14 0.000112764
23 *279:8 *281:6 0.00248575
*RES
1 *2653:X *281:4 23 
2 *281:4 *281:6 35.4007 
3 *281:6 *281:12 31.2014 
4 *281:12 *281:14 41.1179 
5 *281:14 *281:22 44.5829 
6 *281:22 *2661:A 23 
*END

*D_NET *282 0.0159664
*CONN
*I *2662:A I *D sky130_fd_sc_hd__bufinv_8
*I *2654:X O *D sky130_fd_sc_hd__mux2_2
*CAP
1 *2662:A 0
2 *2654:X 0
3 *282:16 0.000378134
4 *282:10 0.00121771
5 *282:8 0.00254923
6 *282:4 0.00170966
7 pad_uio_oe_n[3] *282:16 0
8 *2503:B *282:8 4.93812e-05
9 *2653:A1 *282:8 0.000177438
10 *9:41 *282:10 0.000141154
11 *22:30 *282:16 7.60439e-05
12 *25:38 *282:8 0.00199822
13 *203:73 *282:8 0.000272383
14 *221:10 *282:8 5.79559e-05
15 *255:18 *282:10 0.000230326
16 *256:18 *282:8 0.000444126
17 *279:8 *282:8 0.000472317
18 *279:8 *282:10 0.000507983
19 *279:10 *282:10 0.00195731
20 *281:14 *282:10 0.00372703
21 *281:22 *282:16 0
*RES
1 *2654:X *282:4 23 
2 *282:4 *282:8 39.9682 
3 *282:8 *282:10 44.4529 
4 *282:10 *282:16 36.1314 
5 *282:16 *2662:A 23 
*END

*D_NET *283 0.0142691
*CONN
*I *2663:A I *D sky130_fd_sc_hd__bufinv_8
*I *2655:X O *D sky130_fd_sc_hd__mux2_2
*CAP
1 *2663:A 0.000560279
2 *2655:X 0.000164709
3 *283:20 0.00315369
4 *283:16 0.00553226
5 *283:12 0.00293885
6 *283:10 0.000164709
7 *283:10 *309:6 5.12254e-05
8 *283:16 *288:10 3.53164e-05
9 *283:16 *305:12 0.000603626
10 *2513:A *283:20 2.93845e-05
11 *2571:DIODE *283:16 9.41704e-05
12 *17:31 *2663:A 0
13 *25:34 *283:10 9.67842e-05
14 *128:8 *2663:A 0.000664938
15 *266:8 *283:10 3.72639e-05
16 *272:10 *283:10 0
17 *273:14 *283:10 0.000141879
18 *281:22 *2663:A 0
*RES
1 *2655:X *283:10 42.06 
2 *283:10 *283:12 15 
3 *283:12 *283:16 49.4761 
4 *283:16 *283:20 47.3039 
5 *283:20 *2663:A 48.7093 
*END

*D_NET *284 0.00286923
*CONN
*I *2664:A I *D sky130_fd_sc_hd__bufinv_8
*I *2656:X O *D sky130_fd_sc_hd__mux2_2
*CAP
1 *2664:A 0.000393985
2 *2656:X 0.000638674
3 *284:8 0.00103266
4 *2664:A *308:10 0.000373043
5 *2648:A *2664:A 0.000222457
6 *238:132 *284:8 7.88926e-05
7 *248:10 *284:8 5.50106e-05
8 *249:10 *2664:A 0
9 *259:10 *2664:A 2.74447e-05
10 *276:8 *2664:A 3.5082e-05
11 *276:16 *2664:A 1.19796e-05
*RES
1 *2656:X *284:8 48.6264 
2 *284:8 *2664:A 47.715 
*END

*D_NET *285 0.00281164
*CONN
*I *2665:A I *D sky130_fd_sc_hd__bufinv_8
*I *2657:X O *D sky130_fd_sc_hd__mux2_2
*CAP
1 *2665:A 0
2 *2657:X 0.000438279
3 *285:14 0.000766318
4 *285:10 0.0012046
5 *285:10 *304:36 7.34858e-05
6 *2592:DIODE *285:10 0
7 *2592:DIODE *285:14 7.88926e-05
8 *2658:A1 *285:10 1.01436e-05
9 *143:8 *285:10 0
10 *150:8 *285:10 0
11 *151:35 *285:10 6.10551e-06
12 *171:47 *285:10 0
13 *171:64 *285:10 0.000212085
14 *238:91 *285:10 2.17372e-05
*RES
1 *2657:X *285:10 46.4825 
2 *285:10 *285:14 28.9614 
3 *285:14 *2665:A 23 
*END

*D_NET *286 0.00305104
*CONN
*I *2666:A I *D sky130_fd_sc_hd__bufinv_8
*I *2658:X O *D sky130_fd_sc_hd__mux2_2
*CAP
1 *2666:A 0
2 *2658:X 0.00038815
3 *286:14 0.000620178
4 *286:8 0.00100833
5 *286:14 *309:20 0.0007124
6 *2625:A1 *286:8 1.41077e-05
7 *2625:S *286:8 7.87561e-05
8 *24:13 *286:14 0
9 *24:15 *286:14 0
10 *31:12 *286:14 0
11 *260:10 *286:14 0.000168195
12 *261:10 *286:8 6.09272e-05
13 *261:10 *286:14 0
*RES
1 *2658:X *286:8 44.815 
2 *286:8 *286:14 29.2514 
3 *286:14 *2666:A 23 
*END

*D_NET *287 0.0011515
*CONN
*I *2683:A0 I *D sky130_fd_sc_hd__mux2_2
*I *2667:Y O *D sky130_fd_sc_hd__inv_2
*CAP
1 *2683:A0 0
2 *2667:Y 0.000335156
3 *287:10 0.000335156
4 *2675:A *287:10 0.000123256
5 *98:26 *287:10 0.00035793
*RES
1 *2667:Y *287:10 45.25 
2 *287:10 *2683:A0 38 
*END

*D_NET *288 0.001027
*CONN
*I *2685:A1 I *D sky130_fd_sc_hd__mux2_2
*I *2668:Y O *D sky130_fd_sc_hd__inv_2
*CAP
1 *2685:A1 4.00127e-05
2 *2668:Y 0.000277339
3 *288:10 0.000317352
4 *288:10 *294:10 0.000138911
5 *2687:S *2685:A1 3.22879e-05
6 *156:28 *288:10 8.62876e-05
7 *263:12 *288:10 9.94908e-05
8 *283:16 *288:10 3.53164e-05
*RES
1 *2668:Y *288:10 43.5929 
2 *288:10 *2685:A1 38.6214 
*END

*D_NET *289 0.000331828
*CONN
*I *2686:A1 I *D sky130_fd_sc_hd__mux2_2
*I *2669:Y O *D sky130_fd_sc_hd__inv_2
*CAP
1 *2686:A1 0
2 *2669:Y 9.45439e-05
3 *289:8 9.45439e-05
4 *289:8 *296:8 3.31127e-05
5 *289:8 *303:10 1.01436e-05
6 *289:8 *305:8 4.21594e-06
7 *263:12 *289:8 0
8 *270:14 *289:8 9.52677e-05
*RES
1 *2669:Y *289:8 40.61 
2 *289:8 *2686:A1 38 
*END

*D_NET *290 0.000360626
*CONN
*I *2687:A1 I *D sky130_fd_sc_hd__mux2_2
*I *2670:Y O *D sky130_fd_sc_hd__inv_2
*CAP
1 *2687:A1 0.000108548
2 *2670:Y 0.000108548
3 *2687:S *2687:A1 4.5051e-05
4 *170:48 *2687:A1 9.84794e-05
*RES
1 *2670:Y *2687:A1 48.0507 
*END

*D_NET *291 0.000629784
*CONN
*I *2688:A1 I *D sky130_fd_sc_hd__mux2_2
*I *2671:Y O *D sky130_fd_sc_hd__inv_2
*CAP
1 *2688:A1 0
2 *2671:Y 0.000181379
3 *291:10 0.000181379
4 *291:10 *303:16 0.000182832
5 *238:32 *291:10 4.334e-05
6 *271:14 *291:10 4.08537e-05
*RES
1 *2671:Y *291:10 41.2521 
2 *291:10 *2688:A1 38 
*END

*D_NET *292 0.00240333
*CONN
*I *2689:A1 I *D sky130_fd_sc_hd__mux2_2
*I *2672:Y O *D sky130_fd_sc_hd__inv_2
*CAP
1 *2689:A1 8.45566e-05
2 *2672:Y 0.00049305
3 *292:10 0.000577607
4 spine_top_ow[8] *292:10 0.000609006
5 *2396:TE_B *292:10 0.000224323
6 *2636:A *292:10 8.05936e-05
7 *23:55 *292:10 0
8 *25:34 *2689:A1 4.37586e-06
9 *25:34 *292:10 0.000155451
10 *238:32 *292:10 3.47781e-05
11 *238:45 *2689:A1 5.3304e-05
12 *264:8 *292:10 8.62876e-05
13 *272:10 *292:10 0
*RES
1 *2672:Y *292:10 49.1236 
2 *292:10 *2689:A1 39.0979 
*END

*D_NET *293 0.000962632
*CONN
*I *2690:A1 I *D sky130_fd_sc_hd__mux2_2
*I *2673:Y O *D sky130_fd_sc_hd__inv_2
*CAP
1 *2690:A1 0.000143815
2 *2673:Y 0.000182019
3 *293:8 0.000325834
4 *2690:S *2690:A1 0.000139352
5 *23:26 *2690:A1 2.32004e-05
6 *81:22 *293:8 0
7 *82:24 *293:8 0.000148412
*RES
1 *2673:Y *293:8 42.0186 
2 *293:8 *2690:A1 40.0507 
*END

*D_NET *294 0.00109416
*CONN
*I *2684:A0 I *D sky130_fd_sc_hd__mux2_2
*I *2674:Y O *D sky130_fd_sc_hd__inv_2
*CAP
1 *2684:A0 0
2 *2674:Y 0.00031176
3 *294:10 0.00031176
4 spine_top_ow[3] *294:10 7.80354e-05
5 spine_top_ow[4] *294:10 3.81391e-05
6 *2674:A *294:10 6.17437e-06
7 *155:10 *294:10 8.41012e-05
8 *156:28 *294:10 4.76829e-05
9 *238:228 *294:10 1.57571e-05
10 *238:248 *294:10 6.18399e-05
11 *288:10 *294:10 0.000138911
*RES
1 *2674:Y *294:10 45.8093 
2 *294:10 *2684:A0 38 
*END

*D_NET *295 0.000425254
*CONN
*I *2685:A0 I *D sky130_fd_sc_hd__mux2_2
*I *2675:Y O *D sky130_fd_sc_hd__inv_2
*CAP
1 *2685:A0 0
2 *2675:Y 0.000132408
3 *295:10 0.000132408
4 *2674:A *295:10 0
5 *2675:A *295:10 1.94812e-05
6 *263:12 *295:10 0.000140958
*RES
1 *2675:Y *295:10 40.5271 
2 *295:10 *2685:A0 38 
*END

*D_NET *296 0.000768695
*CONN
*I *2686:A0 I *D sky130_fd_sc_hd__mux2_2
*I *2676:Y O *D sky130_fd_sc_hd__inv_2
*CAP
1 *2686:A0 6.25558e-05
2 *2676:Y 0.000275347
3 *296:8 0.000337903
4 *296:8 *303:10 3.04021e-05
5 *2686:S *2686:A0 2.93747e-05
6 *263:12 *296:8 0
7 *270:14 *296:8 0
8 *289:8 *296:8 3.31127e-05
*RES
1 *2676:Y *296:8 43.075 
2 *296:8 *2686:A0 39.0979 
*END

*D_NET *297 0.0013188
*CONN
*I *2687:A0 I *D sky130_fd_sc_hd__mux2_2
*I *2677:Y O *D sky130_fd_sc_hd__inv_2
*CAP
1 *2687:A0 0
2 *2677:Y 0.000475407
3 *297:10 0.000475407
4 *297:10 *298:8 0.000169674
5 *297:10 *306:10 0.000136486
6 *2575:DIODE *297:10 6.18235e-05
7 *270:14 *297:10 0
8 *271:14 *297:10 0
*RES
1 *2677:Y *297:10 47.1143 
2 *297:10 *2687:A0 38 
*END

*D_NET *298 0.00122937
*CONN
*I *2688:A0 I *D sky130_fd_sc_hd__mux2_2
*I *2678:Y O *D sky130_fd_sc_hd__inv_2
*CAP
1 *2688:A0 0.000129456
2 *2678:Y 0.000179507
3 *298:8 0.000308963
4 *2677:A *298:8 0
5 *238:22 *2688:A0 0.000169595
6 *238:32 *2688:A0 0.000143655
7 *270:14 *298:8 0
8 *271:14 *298:8 0.000128524
9 *297:10 *298:8 0.000169674
*RES
1 *2678:Y *298:8 43.075 
2 *298:8 *2688:A0 41.48 
*END

*D_NET *299 0.00363969
*CONN
*I *2689:A0 I *D sky130_fd_sc_hd__mux2_2
*I *2679:Y O *D sky130_fd_sc_hd__inv_2
*CAP
1 *2689:A0 0
2 *2679:Y 0.0002241
3 *299:14 0.000642871
4 *299:8 0.00086697
5 *25:34 *299:14 1.05235e-05
6 *81:39 *299:8 5.12328e-05
7 *238:32 *299:14 0.000468305
8 *271:14 *299:14 0
9 *272:10 *299:14 0.00137568
*RES
1 *2679:Y *299:8 41.0036 
2 *299:8 *299:14 34.0779 
3 *299:14 *2689:A0 23 
*END

*D_NET *300 0.000709314
*CONN
*I *2690:A0 I *D sky130_fd_sc_hd__mux2_2
*I *2680:Y O *D sky130_fd_sc_hd__inv_2
*CAP
1 *2690:A0 0
2 *2680:Y 0.000236481
3 *300:10 0.000236481
4 *300:10 *310:8 0
5 *24:68 *300:10 9.76261e-05
6 *83:29 *300:10 0.000138727
7 *84:22 *300:10 0
*RES
1 *2680:Y *300:10 41.9564 
2 *300:10 *2690:A0 38 
*END

*D_NET *301 0.000944391
*CONN
*I *2683:A1 I *D sky130_fd_sc_hd__mux2_2
*I *2681:Y O *D sky130_fd_sc_hd__inv_2
*CAP
1 *2683:A1 0
2 *2681:Y 0.000325938
3 *301:10 0.000325938
4 *2674:A *301:10 8.62783e-05
5 *2675:A *301:10 2.79004e-05
6 *2686:S *301:10 0.000137651
7 *170:10 *301:10 4.06849e-05
*RES
1 *2681:Y *301:10 43.1579 
2 *301:10 *2683:A1 38 
*END

*D_NET *302 0.00110531
*CONN
*I *2684:A1 I *D sky130_fd_sc_hd__mux2_2
*I *2682:Y O *D sky130_fd_sc_hd__inv_2
*CAP
1 *2684:A1 0
2 *2682:Y 0.000408955
3 *302:10 0.000408955
4 *2406:A *302:10 2.93845e-05
5 *2406:TE_B *302:10 2.93845e-05
6 *2682:A *302:10 4.40995e-05
7 *154:14 *302:10 0.000184527
*RES
1 *2682:Y *302:10 29.5043 
2 *302:10 *2684:A1 23 
*END

*D_NET *303 0.00846552
*CONN
*I *2691:A I *D sky130_fd_sc_hd__bufinv_8
*I *2683:X O *D sky130_fd_sc_hd__mux2_2
*CAP
1 *2691:A 0.000723137
2 *2683:X 0.000273753
3 *303:16 0.00264338
4 *303:12 0.00192025
5 *303:10 0.000273753
6 *2691:A *307:12 0.000789746
7 *303:16 *306:10 7.44161e-06
8 *303:16 *307:12 0.00106215
9 *2575:DIODE *303:16 5.70419e-05
10 *2606:A *303:16 5.50106e-05
11 *2671:A *303:16 5.50049e-05
12 *238:22 *303:10 0.000171512
13 *242:10 *303:16 9.5877e-05
14 *270:14 *303:10 0.000114083
15 *289:8 *303:10 1.01436e-05
16 *291:10 *303:16 0.000182832
17 *296:8 *303:10 3.04021e-05
*RES
1 *2683:X *303:10 42.9404 
2 *303:10 *303:12 15 
3 *303:12 *303:16 37.8036 
4 *303:16 *2691:A 38.8671 
*END

*D_NET *304 0.0118077
*CONN
*I *2692:A I *D sky130_fd_sc_hd__bufinv_8
*I *2684:X O *D sky130_fd_sc_hd__mux2_2
*CAP
1 *2692:A 0
2 *2684:X 0.000751456
3 *304:36 0.00157922
4 *304:28 0.00229068
5 *304:22 0.00142845
6 *304:10 0.00146845
7 *2401:A *304:36 4.95081e-05
8 *2401:TE_B *304:36 0.000136738
9 *2620:A1 *304:28 0.000143655
10 *2657:A1 *304:28 0.000444686
11 *2658:A1 *304:28 5.50106e-05
12 *23:49 *304:22 0.00053323
13 *24:30 *304:36 0.000343273
14 *25:38 *304:22 1.40958e-05
15 *170:62 *304:10 2.29192e-05
16 *171:64 *304:36 5.94125e-05
17 *238:45 *304:10 4.08537e-05
18 *238:51 *304:22 0.000264782
19 *238:74 *304:22 1.22822e-05
20 *238:74 *304:28 0.000316475
21 *238:76 *304:28 0.000181584
22 *238:78 *304:28 0.000447905
23 *238:91 *304:28 0.000166667
24 *239:12 *304:22 0
25 *246:12 *304:28 9.84794e-05
26 *255:10 *304:22 2.26406e-05
27 *255:18 *304:22 0.000116709
28 *256:18 *304:28 0.000100139
29 *260:10 *304:36 0.00036034
30 *269:8 *304:36 0.000185755
31 *271:14 *304:22 9.88081e-05
32 *285:10 *304:36 7.34858e-05
*RES
1 *2684:X *304:10 47.4457 
2 *304:10 *304:22 43.4229 
3 *304:22 *304:28 49.2021 
4 *304:28 *304:36 44.6836 
5 *304:36 *2692:A 23 
*END

*D_NET *305 0.00873613
*CONN
*I *2693:A I *D sky130_fd_sc_hd__bufinv_8
*I *2685:X O *D sky130_fd_sc_hd__mux2_2
*CAP
1 *2693:A 2.34823e-05
2 *2685:X 0.000290838
3 *305:12 0.00347364
4 *305:10 0.00345016
5 *305:8 0.000290838
6 *2604:A *305:12 0.000226306
7 *2670:A *305:8 0.00013139
8 *156:8 *305:8 0.000141888
9 *157:23 *305:8 7.03766e-05
10 *240:10 *305:12 2.93747e-05
11 *263:12 *305:8 0
12 *270:14 *305:8 0
13 *283:16 *305:12 0.000603626
14 *289:8 *305:8 4.21594e-06
*RES
1 *2685:X *305:8 44.4836 
2 *305:8 *305:10 15 
3 *305:10 *305:12 61.1279 
4 *305:12 *2693:A 23.4971 
*END

*D_NET *306 0.00993558
*CONN
*I *2694:A I *D sky130_fd_sc_hd__bufinv_8
*I *2686:X O *D sky130_fd_sc_hd__mux2_2
*CAP
1 *2694:A 0
2 *2686:X 0.000339314
3 *306:24 0.00204309
4 *306:20 0.00302793
5 *306:10 0.00132416
6 *2404:TE_B *306:24 4.5051e-05
7 *2410:A *306:24 0.000222785
8 *2410:TE_B *306:24 4.95081e-05
9 *2414:A *306:20 5.50106e-05
10 *2414:TE_B *306:20 5.3304e-05
11 *2575:DIODE *306:10 5.41288e-05
12 *2609:A *306:24 5.50106e-05
13 *2621:A0 *306:20 5.3304e-05
14 *2621:S *306:20 3.32563e-05
15 *2621:S *306:24 9.84851e-05
16 *2634:A *306:24 0.00100932
17 *2671:A *306:10 1.94693e-05
18 *170:48 *306:10 5.3656e-05
19 *171:23 *306:24 0.00034801
20 *171:25 *306:24 8.6949e-05
21 *171:156 *306:10 0.000167452
22 *171:167 *306:20 1.56665e-05
23 *257:6 *306:20 0.000590473
24 *271:14 *306:10 4.6323e-05
25 *297:10 *306:10 0.000136486
26 *303:16 *306:10 7.44161e-06
*RES
1 *2686:X *306:10 44.4214 
2 *306:10 *306:20 34.865 
3 *306:20 *306:24 38.28 
4 *306:24 *2694:A 23 
*END

*D_NET *307 0.00813649
*CONN
*I *2695:A I *D sky130_fd_sc_hd__bufinv_8
*I *2687:X O *D sky130_fd_sc_hd__mux2_2
*CAP
1 *2695:A 4.01155e-05
2 *2687:X 5.34392e-05
3 *307:12 0.00300075
4 *307:10 0.00296063
5 *307:8 5.34392e-05
6 *2606:A *307:12 2.64616e-05
7 *2691:A *307:12 0.000789746
8 *238:32 *307:8 3.5664e-05
9 *271:14 *307:8 0.000114092
10 *303:16 *307:12 0.00106215
*RES
1 *2687:X *307:8 39.5536 
2 *307:8 *307:10 15 
3 *307:10 *307:12 56.3636 
4 *307:12 *2695:A 23.8493 
*END

*D_NET *308 0.00819875
*CONN
*I *2696:A I *D sky130_fd_sc_hd__bufinv_8
*I *2688:X O *D sky130_fd_sc_hd__mux2_2
*CAP
1 *2696:A 0
2 *2688:X 0
3 *308:14 0.00146046
4 *308:10 0.00319145
5 *308:4 0.00173099
6 *2584:DIODE *308:10 0.00010018
7 *2611:A *308:10 0.0002246
8 *2626:S *308:14 0.000182826
9 *2639:A *308:10 5.50106e-05
10 *2647:A *308:10 5.50049e-05
11 *2648:A *308:10 9.84794e-05
12 *2664:A *308:10 0.000373043
13 *23:15 *308:10 0.000130705
14 *238:154 *308:10 0
15 *259:10 *308:10 0.000191497
16 *275:8 *308:10 0.000404502
*RES
1 *2688:X *308:4 23 
2 *308:4 *308:10 49.0646 
3 *308:10 *308:14 39.9193 
4 *308:14 *2696:A 23 
*END

*D_NET *309 0.00949415
*CONN
*I *2697:A I *D sky130_fd_sc_hd__bufinv_8
*I *2689:X O *D sky130_fd_sc_hd__mux2_2
*CAP
1 *2697:A 0
2 *2689:X 0.000433791
3 *309:20 0.00154802
4 *309:14 0.00240665
5 *309:6 0.00129242
6 spine_top_ow[19] *309:14 1.3247e-05
7 *2409:TE_B *309:14 0.000318244
8 *2409:TE_B *309:20 0
9 *2593:DIODE *309:20 1.05235e-05
10 *2655:A1 *309:6 4.95081e-05
11 *2655:S *309:6 0.000834261
12 *25:34 *309:6 0.000511248
13 *143:33 *309:14 0.000165197
14 *146:19 *309:14 0.000502613
15 *148:21 *309:14 0.000188775
16 *170:172 *309:14 0.000273195
17 *254:8 *309:14 0
18 *273:14 *309:6 0.00018282
19 *283:10 *309:6 5.12254e-05
20 *286:14 *309:20 0.0007124
*RES
1 *2689:X *309:6 38.7739 
2 *309:6 *309:14 48.8707 
3 *309:14 *309:20 27.5707 
4 *309:20 *2697:A 23 
*END

*D_NET *310 0.00764703
*CONN
*I *2698:A I *D sky130_fd_sc_hd__bufinv_8
*I *2690:X O *D sky130_fd_sc_hd__mux2_2
*CAP
1 *2698:A 0.000722705
2 *2690:X 0.000424502
3 *310:14 0.00249771
4 *310:8 0.00219951
5 spine_bot_ow[11] *310:8 0
6 spine_bot_ow[13] *310:8 2.10926e-05
7 *2382:A *310:14 0.000401212
8 *82:24 *310:8 0
9 *83:12 *310:8 0
10 *83:29 *310:8 0
11 *84:22 *310:8 0.000258436
12 *166:30 *310:14 0.000170175
13 *166:32 *310:14 0.000198032
14 *166:34 *310:14 0.000202409
15 *167:17 *310:14 0.000161265
16 *167:23 *310:14 0.000362546
17 *167:32 *310:14 2.1819e-05
18 *167:65 *310:14 5.61255e-06
19 *167:107 *310:8 0
20 *300:10 *310:8 0
*RES
1 *2690:X *310:8 46.5964 
2 *310:8 *310:14 42.9125 
3 *310:14 *2698:A 35.7704 
*END
