*SPEF "ieee 1481-1999"
*DESIGN "tt_um_chip_rom"
*DATE "10:06:10 Saturday December 06, 2025"
*VENDOR "The OpenROAD Project"
*PROGRAM "OpenROAD"
*VERSION "341650e72dad0dc8571822ff8c5d9c5e365327f7"
*DESIGN_FLOW "NAME_SCOPE LOCAL" "PIN_CAP NONE"
*DIVIDER /
*DELIMITER :
*BUS_DELIMITER []
*T_UNIT 1 NS
*C_UNIT 1 PF
*R_UNIT 1 OHM
*L_UNIT 1 HENRY

*NAME_MAP
*3 clk
*4 ena
*5 rst_n
*6 ui_in[0]
*7 ui_in[1]
*8 ui_in[2]
*9 ui_in[3]
*10 ui_in[4]
*11 ui_in[5]
*12 ui_in[6]
*13 ui_in[7]
*14 uio_in[0]
*15 uio_in[1]
*16 uio_in[2]
*17 uio_in[3]
*18 uio_in[4]
*19 uio_in[5]
*20 uio_in[6]
*21 uio_in[7]
*22 net27
*23 net41
*24 net42
*25 net43
*26 net44
*27 net45
*28 net46
*29 net47
*30 net48
*31 net49
*32 net50
*33 net51
*34 net52
*35 net53
*36 net54
*37 net55
*38 uo_out[0]
*39 uo_out[1]
*40 uo_out[2]
*41 uo_out[3]
*42 uo_out[4]
*43 uo_out[5]
*44 uo_out[6]
*45 uo_out[7]
*46 _000_
*47 _001_
*48 _002_
*49 _003_
*50 _004_
*51 _005_
*52 _006_
*53 _007_
*54 _008_
*55 _009_
*56 _010_
*57 _011_
*58 _012_
*59 _013_
*60 _014_
*61 _015_
*62 _016_
*63 _017_
*64 _018_
*65 _019_
*66 _020_
*67 _021_
*68 _022_
*69 _023_
*70 _024_
*71 _025_
*72 _026_
*73 _027_
*74 _028_
*75 _029_
*76 _030_
*77 _031_
*78 _032_
*79 _033_
*80 _034_
*81 _035_
*82 _036_
*83 _037_
*84 _038_
*85 _039_
*86 _040_
*87 _041_
*88 _042_
*89 _043_
*90 _044_
*91 _045_
*92 _046_
*93 _047_
*94 _048_
*95 _049_
*96 _050_
*97 _051_
*98 _052_
*99 _053_
*100 _054_
*101 _055_
*102 _056_
*103 _057_
*104 _058_
*105 _059_
*106 _060_
*107 _061_
*108 _062_
*109 _063_
*110 _064_
*111 _065_
*112 _066_
*113 _067_
*114 _068_
*115 _069_
*116 _070_
*117 _071_
*118 _072_
*119 _073_
*120 _074_
*121 _075_
*122 _076_
*123 _077_
*124 _078_
*125 _079_
*126 _080_
*127 _081_
*128 _082_
*129 _083_
*130 _084_
*131 _085_
*132 _086_
*133 _087_
*134 _088_
*135 _089_
*136 _090_
*137 _091_
*138 _092_
*139 _093_
*140 _094_
*141 _095_
*142 _096_
*143 _097_
*144 _098_
*145 _099_
*146 _100_
*147 _101_
*148 _102_
*149 _103_
*150 _104_
*151 _105_
*152 _106_
*153 _107_
*154 _108_
*155 _109_
*156 _110_
*157 _111_
*158 _112_
*159 _113_
*160 _114_
*161 _115_
*162 _116_
*163 _117_
*164 _118_
*165 _119_
*166 _120_
*167 _121_
*168 _122_
*169 _123_
*170 _124_
*171 _125_
*172 _126_
*173 _127_
*174 _128_
*175 _129_
*176 _130_
*177 _131_
*178 _132_
*179 _133_
*180 _134_
*181 _135_
*182 _136_
*183 _137_
*184 _138_
*185 _139_
*186 _140_
*187 _141_
*188 _142_
*189 _143_
*190 _144_
*191 _145_
*192 _146_
*193 _147_
*194 _148_
*195 _149_
*196 _150_
*197 _151_
*198 _152_
*199 _153_
*200 _154_
*201 _155_
*202 _156_
*203 addr_counter\[0\]
*204 addr_counter\[1\]
*205 addr_counter\[2\]
*206 addr_counter\[3\]
*207 addr_counter\[4\]
*208 addr_counter\[5\]
*209 addr_counter\[6\]
*210 addr_counter\[7\]
*211 clknet_0_clk
*212 clknet_1_0__leaf_clk
*213 clknet_1_1__leaf_clk
*214 net1
*215 net10
*216 net11
*217 net12
*218 net13
*219 net14
*220 net15
*221 net16
*222 net17
*223 net18
*224 net19
*225 net2
*226 net20
*227 net21
*228 net22
*229 net23
*230 net24
*231 net25
*232 net26
*233 net28
*234 net29
*235 net3
*236 net30
*237 net31
*238 net32
*239 net33
*240 net34
*241 net35
*242 net36
*243 net37
*244 net38
*245 net39
*246 net4
*247 net40
*248 net5
*249 net56
*250 net57
*251 net58
*252 net59
*253 net6
*254 net60
*255 net7
*256 net8
*257 net9
*258 FILLER_0_100
*259 FILLER_0_103
*260 FILLER_0_106
*261 FILLER_0_109
*262 FILLER_0_113
*263 FILLER_0_116
*264 FILLER_0_119
*265 FILLER_0_12
*266 FILLER_0_122
*267 FILLER_0_125
*268 FILLER_0_128
*269 FILLER_0_131
*270 FILLER_0_134
*271 FILLER_0_137
*272 FILLER_0_141
*273 FILLER_0_144
*274 FILLER_0_147
*275 FILLER_0_15
*276 FILLER_0_150
*277 FILLER_0_153
*278 FILLER_0_156
*279 FILLER_0_159
*280 FILLER_0_162
*281 FILLER_0_165
*282 FILLER_0_169
*283 FILLER_0_172
*284 FILLER_0_175
*285 FILLER_0_178
*286 FILLER_0_18
*287 FILLER_0_181
*288 FILLER_0_184
*289 FILLER_0_187
*290 FILLER_0_190
*291 FILLER_0_193
*292 FILLER_0_197
*293 FILLER_0_200
*294 FILLER_0_203
*295 FILLER_0_206
*296 FILLER_0_209
*297 FILLER_0_21
*298 FILLER_0_212
*299 FILLER_0_215
*300 FILLER_0_218
*301 FILLER_0_221
*302 FILLER_0_225
*303 FILLER_0_228
*304 FILLER_0_231
*305 FILLER_0_234
*306 FILLER_0_237
*307 FILLER_0_24
*308 FILLER_0_240
*309 FILLER_0_243
*310 FILLER_0_246
*311 FILLER_0_249
*312 FILLER_0_253
*313 FILLER_0_256
*314 FILLER_0_259
*315 FILLER_0_262
*316 FILLER_0_265
*317 FILLER_0_268
*318 FILLER_0_27
*319 FILLER_0_271
*320 FILLER_0_274
*321 FILLER_0_277
*322 FILLER_0_281
*323 FILLER_0_284
*324 FILLER_0_287
*325 FILLER_0_29
*326 FILLER_0_290
*327 FILLER_0_293
*328 FILLER_0_296
*329 FILLER_0_299
*330 FILLER_0_3
*331 FILLER_0_302
*332 FILLER_0_305
*333 FILLER_0_309
*334 FILLER_0_312
*335 FILLER_0_315
*336 FILLER_0_318
*337 FILLER_0_32
*338 FILLER_0_321
*339 FILLER_0_324
*340 FILLER_0_327
*341 FILLER_0_330
*342 FILLER_0_333
*343 FILLER_0_35
*344 FILLER_0_38
*345 FILLER_0_41
*346 FILLER_0_44
*347 FILLER_0_47
*348 FILLER_0_50
*349 FILLER_0_53
*350 FILLER_0_57
*351 FILLER_0_6
*352 FILLER_0_60
*353 FILLER_0_63
*354 FILLER_0_66
*355 FILLER_0_69
*356 FILLER_0_72
*357 FILLER_0_75
*358 FILLER_0_78
*359 FILLER_0_81
*360 FILLER_0_85
*361 FILLER_0_88
*362 FILLER_0_9
*363 FILLER_0_91
*364 FILLER_0_94
*365 FILLER_0_97
*366 FILLER_10_100
*367 FILLER_10_103
*368 FILLER_10_106
*369 FILLER_10_109
*370 FILLER_10_112
*371 FILLER_10_115
*372 FILLER_10_118
*373 FILLER_10_12
*374 FILLER_10_121
*375 FILLER_10_124
*376 FILLER_10_127
*377 FILLER_10_130
*378 FILLER_10_133
*379 FILLER_10_136
*380 FILLER_10_139
*381 FILLER_10_141
*382 FILLER_10_144
*383 FILLER_10_147
*384 FILLER_10_15
*385 FILLER_10_150
*386 FILLER_10_153
*387 FILLER_10_156
*388 FILLER_10_159
*389 FILLER_10_162
*390 FILLER_10_165
*391 FILLER_10_168
*392 FILLER_10_171
*393 FILLER_10_174
*394 FILLER_10_177
*395 FILLER_10_18
*396 FILLER_10_180
*397 FILLER_10_183
*398 FILLER_10_186
*399 FILLER_10_189
*400 FILLER_10_192
*401 FILLER_10_195
*402 FILLER_10_197
*403 FILLER_10_200
*404 FILLER_10_203
*405 FILLER_10_206
*406 FILLER_10_209
*407 FILLER_10_21
*408 FILLER_10_212
*409 FILLER_10_215
*410 FILLER_10_218
*411 FILLER_10_221
*412 FILLER_10_224
*413 FILLER_10_227
*414 FILLER_10_230
*415 FILLER_10_233
*416 FILLER_10_236
*417 FILLER_10_239
*418 FILLER_10_24
*419 FILLER_10_242
*420 FILLER_10_245
*421 FILLER_10_248
*422 FILLER_10_251
*423 FILLER_10_253
*424 FILLER_10_256
*425 FILLER_10_259
*426 FILLER_10_262
*427 FILLER_10_265
*428 FILLER_10_268
*429 FILLER_10_27
*430 FILLER_10_271
*431 FILLER_10_274
*432 FILLER_10_277
*433 FILLER_10_280
*434 FILLER_10_283
*435 FILLER_10_286
*436 FILLER_10_289
*437 FILLER_10_29
*438 FILLER_10_292
*439 FILLER_10_295
*440 FILLER_10_298
*441 FILLER_10_3
*442 FILLER_10_301
*443 FILLER_10_304
*444 FILLER_10_307
*445 FILLER_10_309
*446 FILLER_10_312
*447 FILLER_10_315
*448 FILLER_10_318
*449 FILLER_10_32
*450 FILLER_10_321
*451 FILLER_10_324
*452 FILLER_10_327
*453 FILLER_10_330
*454 FILLER_10_333
*455 FILLER_10_35
*456 FILLER_10_38
*457 FILLER_10_41
*458 FILLER_10_44
*459 FILLER_10_47
*460 FILLER_10_50
*461 FILLER_10_53
*462 FILLER_10_56
*463 FILLER_10_59
*464 FILLER_10_6
*465 FILLER_10_62
*466 FILLER_10_65
*467 FILLER_10_68
*468 FILLER_10_71
*469 FILLER_10_74
*470 FILLER_10_77
*471 FILLER_10_80
*472 FILLER_10_83
*473 FILLER_10_85
*474 FILLER_10_88
*475 FILLER_10_9
*476 FILLER_10_91
*477 FILLER_10_94
*478 FILLER_10_97
*479 FILLER_11_102
*480 FILLER_11_105
*481 FILLER_11_108
*482 FILLER_11_111
*483 FILLER_11_113
*484 FILLER_11_116
*485 FILLER_11_119
*486 FILLER_11_12
*487 FILLER_11_122
*488 FILLER_11_125
*489 FILLER_11_128
*490 FILLER_11_131
*491 FILLER_11_134
*492 FILLER_11_137
*493 FILLER_11_140
*494 FILLER_11_143
*495 FILLER_11_146
*496 FILLER_11_149
*497 FILLER_11_15
*498 FILLER_11_152
*499 FILLER_11_155
*500 FILLER_11_158
*501 FILLER_11_161
*502 FILLER_11_164
*503 FILLER_11_167
*504 FILLER_11_169
*505 FILLER_11_172
*506 FILLER_11_175
*507 FILLER_11_178
*508 FILLER_11_18
*509 FILLER_11_181
*510 FILLER_11_184
*511 FILLER_11_187
*512 FILLER_11_190
*513 FILLER_11_193
*514 FILLER_11_196
*515 FILLER_11_199
*516 FILLER_11_202
*517 FILLER_11_205
*518 FILLER_11_208
*519 FILLER_11_21
*520 FILLER_11_211
*521 FILLER_11_214
*522 FILLER_11_217
*523 FILLER_11_220
*524 FILLER_11_223
*525 FILLER_11_225
*526 FILLER_11_228
*527 FILLER_11_231
*528 FILLER_11_234
*529 FILLER_11_237
*530 FILLER_11_24
*531 FILLER_11_240
*532 FILLER_11_243
*533 FILLER_11_246
*534 FILLER_11_249
*535 FILLER_11_252
*536 FILLER_11_255
*537 FILLER_11_258
*538 FILLER_11_261
*539 FILLER_11_264
*540 FILLER_11_267
*541 FILLER_11_27
*542 FILLER_11_270
*543 FILLER_11_273
*544 FILLER_11_276
*545 FILLER_11_279
*546 FILLER_11_281
*547 FILLER_11_284
*548 FILLER_11_287
*549 FILLER_11_290
*550 FILLER_11_293
*551 FILLER_11_296
*552 FILLER_11_299
*553 FILLER_11_3
*554 FILLER_11_30
*555 FILLER_11_302
*556 FILLER_11_305
*557 FILLER_11_308
*558 FILLER_11_311
*559 FILLER_11_314
*560 FILLER_11_317
*561 FILLER_11_320
*562 FILLER_11_323
*563 FILLER_11_326
*564 FILLER_11_329
*565 FILLER_11_33
*566 FILLER_11_332
*567 FILLER_11_36
*568 FILLER_11_39
*569 FILLER_11_42
*570 FILLER_11_45
*571 FILLER_11_48
*572 FILLER_11_51
*573 FILLER_11_54
*574 FILLER_11_57
*575 FILLER_11_6
*576 FILLER_11_60
*577 FILLER_11_63
*578 FILLER_11_66
*579 FILLER_11_69
*580 FILLER_11_72
*581 FILLER_11_75
*582 FILLER_11_78
*583 FILLER_11_81
*584 FILLER_11_84
*585 FILLER_11_87
*586 FILLER_11_9
*587 FILLER_11_90
*588 FILLER_11_93
*589 FILLER_11_96
*590 FILLER_11_99
*591 FILLER_12_100
*592 FILLER_12_103
*593 FILLER_12_106
*594 FILLER_12_109
*595 FILLER_12_112
*596 FILLER_12_115
*597 FILLER_12_118
*598 FILLER_12_12
*599 FILLER_12_121
*600 FILLER_12_124
*601 FILLER_12_127
*602 FILLER_12_130
*603 FILLER_12_133
*604 FILLER_12_136
*605 FILLER_12_139
*606 FILLER_12_141
*607 FILLER_12_144
*608 FILLER_12_147
*609 FILLER_12_15
*610 FILLER_12_150
*611 FILLER_12_153
*612 FILLER_12_156
*613 FILLER_12_159
*614 FILLER_12_162
*615 FILLER_12_165
*616 FILLER_12_168
*617 FILLER_12_171
*618 FILLER_12_174
*619 FILLER_12_177
*620 FILLER_12_18
*621 FILLER_12_180
*622 FILLER_12_183
*623 FILLER_12_186
*624 FILLER_12_189
*625 FILLER_12_192
*626 FILLER_12_195
*627 FILLER_12_197
*628 FILLER_12_200
*629 FILLER_12_203
*630 FILLER_12_206
*631 FILLER_12_209
*632 FILLER_12_21
*633 FILLER_12_212
*634 FILLER_12_215
*635 FILLER_12_218
*636 FILLER_12_221
*637 FILLER_12_224
*638 FILLER_12_227
*639 FILLER_12_230
*640 FILLER_12_233
*641 FILLER_12_236
*642 FILLER_12_239
*643 FILLER_12_24
*644 FILLER_12_242
*645 FILLER_12_245
*646 FILLER_12_248
*647 FILLER_12_251
*648 FILLER_12_253
*649 FILLER_12_256
*650 FILLER_12_259
*651 FILLER_12_262
*652 FILLER_12_265
*653 FILLER_12_268
*654 FILLER_12_27
*655 FILLER_12_271
*656 FILLER_12_274
*657 FILLER_12_277
*658 FILLER_12_280
*659 FILLER_12_283
*660 FILLER_12_286
*661 FILLER_12_289
*662 FILLER_12_29
*663 FILLER_12_292
*664 FILLER_12_295
*665 FILLER_12_298
*666 FILLER_12_3
*667 FILLER_12_301
*668 FILLER_12_304
*669 FILLER_12_307
*670 FILLER_12_309
*671 FILLER_12_312
*672 FILLER_12_315
*673 FILLER_12_318
*674 FILLER_12_32
*675 FILLER_12_321
*676 FILLER_12_324
*677 FILLER_12_327
*678 FILLER_12_330
*679 FILLER_12_333
*680 FILLER_12_35
*681 FILLER_12_38
*682 FILLER_12_41
*683 FILLER_12_44
*684 FILLER_12_47
*685 FILLER_12_50
*686 FILLER_12_53
*687 FILLER_12_56
*688 FILLER_12_59
*689 FILLER_12_6
*690 FILLER_12_62
*691 FILLER_12_65
*692 FILLER_12_68
*693 FILLER_12_71
*694 FILLER_12_74
*695 FILLER_12_77
*696 FILLER_12_80
*697 FILLER_12_83
*698 FILLER_12_85
*699 FILLER_12_88
*700 FILLER_12_9
*701 FILLER_12_91
*702 FILLER_12_94
*703 FILLER_12_97
*704 FILLER_13_102
*705 FILLER_13_105
*706 FILLER_13_108
*707 FILLER_13_111
*708 FILLER_13_113
*709 FILLER_13_116
*710 FILLER_13_119
*711 FILLER_13_12
*712 FILLER_13_122
*713 FILLER_13_125
*714 FILLER_13_128
*715 FILLER_13_131
*716 FILLER_13_134
*717 FILLER_13_137
*718 FILLER_13_140
*719 FILLER_13_143
*720 FILLER_13_146
*721 FILLER_13_149
*722 FILLER_13_15
*723 FILLER_13_152
*724 FILLER_13_155
*725 FILLER_13_158
*726 FILLER_13_161
*727 FILLER_13_164
*728 FILLER_13_167
*729 FILLER_13_169
*730 FILLER_13_172
*731 FILLER_13_175
*732 FILLER_13_178
*733 FILLER_13_18
*734 FILLER_13_181
*735 FILLER_13_184
*736 FILLER_13_187
*737 FILLER_13_190
*738 FILLER_13_193
*739 FILLER_13_196
*740 FILLER_13_199
*741 FILLER_13_202
*742 FILLER_13_205
*743 FILLER_13_208
*744 FILLER_13_21
*745 FILLER_13_211
*746 FILLER_13_214
*747 FILLER_13_217
*748 FILLER_13_220
*749 FILLER_13_223
*750 FILLER_13_225
*751 FILLER_13_228
*752 FILLER_13_231
*753 FILLER_13_234
*754 FILLER_13_237
*755 FILLER_13_24
*756 FILLER_13_240
*757 FILLER_13_243
*758 FILLER_13_246
*759 FILLER_13_249
*760 FILLER_13_252
*761 FILLER_13_255
*762 FILLER_13_258
*763 FILLER_13_261
*764 FILLER_13_264
*765 FILLER_13_267
*766 FILLER_13_27
*767 FILLER_13_270
*768 FILLER_13_273
*769 FILLER_13_276
*770 FILLER_13_279
*771 FILLER_13_281
*772 FILLER_13_284
*773 FILLER_13_287
*774 FILLER_13_290
*775 FILLER_13_293
*776 FILLER_13_296
*777 FILLER_13_299
*778 FILLER_13_3
*779 FILLER_13_30
*780 FILLER_13_302
*781 FILLER_13_305
*782 FILLER_13_308
*783 FILLER_13_311
*784 FILLER_13_314
*785 FILLER_13_317
*786 FILLER_13_320
*787 FILLER_13_323
*788 FILLER_13_326
*789 FILLER_13_329
*790 FILLER_13_33
*791 FILLER_13_332
*792 FILLER_13_36
*793 FILLER_13_39
*794 FILLER_13_42
*795 FILLER_13_45
*796 FILLER_13_48
*797 FILLER_13_51
*798 FILLER_13_54
*799 FILLER_13_57
*800 FILLER_13_6
*801 FILLER_13_60
*802 FILLER_13_63
*803 FILLER_13_66
*804 FILLER_13_69
*805 FILLER_13_72
*806 FILLER_13_75
*807 FILLER_13_78
*808 FILLER_13_81
*809 FILLER_13_84
*810 FILLER_13_87
*811 FILLER_13_9
*812 FILLER_13_90
*813 FILLER_13_93
*814 FILLER_13_96
*815 FILLER_13_99
*816 FILLER_14_100
*817 FILLER_14_103
*818 FILLER_14_106
*819 FILLER_14_109
*820 FILLER_14_112
*821 FILLER_14_115
*822 FILLER_14_118
*823 FILLER_14_12
*824 FILLER_14_121
*825 FILLER_14_124
*826 FILLER_14_127
*827 FILLER_14_130
*828 FILLER_14_133
*829 FILLER_14_136
*830 FILLER_14_139
*831 FILLER_14_141
*832 FILLER_14_144
*833 FILLER_14_147
*834 FILLER_14_15
*835 FILLER_14_150
*836 FILLER_14_153
*837 FILLER_14_156
*838 FILLER_14_159
*839 FILLER_14_162
*840 FILLER_14_165
*841 FILLER_14_168
*842 FILLER_14_171
*843 FILLER_14_174
*844 FILLER_14_177
*845 FILLER_14_18
*846 FILLER_14_180
*847 FILLER_14_183
*848 FILLER_14_186
*849 FILLER_14_189
*850 FILLER_14_192
*851 FILLER_14_195
*852 FILLER_14_197
*853 FILLER_14_200
*854 FILLER_14_203
*855 FILLER_14_206
*856 FILLER_14_209
*857 FILLER_14_21
*858 FILLER_14_212
*859 FILLER_14_215
*860 FILLER_14_218
*861 FILLER_14_221
*862 FILLER_14_224
*863 FILLER_14_227
*864 FILLER_14_230
*865 FILLER_14_233
*866 FILLER_14_236
*867 FILLER_14_239
*868 FILLER_14_24
*869 FILLER_14_242
*870 FILLER_14_245
*871 FILLER_14_248
*872 FILLER_14_251
*873 FILLER_14_253
*874 FILLER_14_256
*875 FILLER_14_259
*876 FILLER_14_262
*877 FILLER_14_265
*878 FILLER_14_268
*879 FILLER_14_27
*880 FILLER_14_271
*881 FILLER_14_274
*882 FILLER_14_277
*883 FILLER_14_280
*884 FILLER_14_283
*885 FILLER_14_286
*886 FILLER_14_289
*887 FILLER_14_29
*888 FILLER_14_292
*889 FILLER_14_295
*890 FILLER_14_298
*891 FILLER_14_3
*892 FILLER_14_301
*893 FILLER_14_304
*894 FILLER_14_307
*895 FILLER_14_309
*896 FILLER_14_312
*897 FILLER_14_315
*898 FILLER_14_318
*899 FILLER_14_32
*900 FILLER_14_321
*901 FILLER_14_324
*902 FILLER_14_327
*903 FILLER_14_330
*904 FILLER_14_333
*905 FILLER_14_35
*906 FILLER_14_38
*907 FILLER_14_41
*908 FILLER_14_44
*909 FILLER_14_47
*910 FILLER_14_50
*911 FILLER_14_53
*912 FILLER_14_56
*913 FILLER_14_59
*914 FILLER_14_6
*915 FILLER_14_62
*916 FILLER_14_65
*917 FILLER_14_68
*918 FILLER_14_71
*919 FILLER_14_74
*920 FILLER_14_77
*921 FILLER_14_80
*922 FILLER_14_83
*923 FILLER_14_85
*924 FILLER_14_88
*925 FILLER_14_9
*926 FILLER_14_91
*927 FILLER_14_94
*928 FILLER_14_97
*929 FILLER_15_102
*930 FILLER_15_105
*931 FILLER_15_108
*932 FILLER_15_111
*933 FILLER_15_113
*934 FILLER_15_116
*935 FILLER_15_119
*936 FILLER_15_12
*937 FILLER_15_122
*938 FILLER_15_125
*939 FILLER_15_128
*940 FILLER_15_131
*941 FILLER_15_134
*942 FILLER_15_137
*943 FILLER_15_140
*944 FILLER_15_143
*945 FILLER_15_146
*946 FILLER_15_149
*947 FILLER_15_15
*948 FILLER_15_152
*949 FILLER_15_155
*950 FILLER_15_158
*951 FILLER_15_161
*952 FILLER_15_164
*953 FILLER_15_167
*954 FILLER_15_169
*955 FILLER_15_172
*956 FILLER_15_175
*957 FILLER_15_178
*958 FILLER_15_18
*959 FILLER_15_181
*960 FILLER_15_184
*961 FILLER_15_187
*962 FILLER_15_190
*963 FILLER_15_193
*964 FILLER_15_196
*965 FILLER_15_199
*966 FILLER_15_202
*967 FILLER_15_205
*968 FILLER_15_208
*969 FILLER_15_21
*970 FILLER_15_211
*971 FILLER_15_214
*972 FILLER_15_217
*973 FILLER_15_220
*974 FILLER_15_223
*975 FILLER_15_225
*976 FILLER_15_228
*977 FILLER_15_231
*978 FILLER_15_234
*979 FILLER_15_237
*980 FILLER_15_24
*981 FILLER_15_240
*982 FILLER_15_243
*983 FILLER_15_246
*984 FILLER_15_249
*985 FILLER_15_252
*986 FILLER_15_255
*987 FILLER_15_258
*988 FILLER_15_261
*989 FILLER_15_264
*990 FILLER_15_267
*991 FILLER_15_27
*992 FILLER_15_270
*993 FILLER_15_273
*994 FILLER_15_276
*995 FILLER_15_279
*996 FILLER_15_281
*997 FILLER_15_284
*998 FILLER_15_287
*999 FILLER_15_290
*1000 FILLER_15_293
*1001 FILLER_15_296
*1002 FILLER_15_299
*1003 FILLER_15_3
*1004 FILLER_15_30
*1005 FILLER_15_302
*1006 FILLER_15_305
*1007 FILLER_15_308
*1008 FILLER_15_311
*1009 FILLER_15_314
*1010 FILLER_15_317
*1011 FILLER_15_320
*1012 FILLER_15_323
*1013 FILLER_15_326
*1014 FILLER_15_329
*1015 FILLER_15_33
*1016 FILLER_15_332
*1017 FILLER_15_36
*1018 FILLER_15_39
*1019 FILLER_15_42
*1020 FILLER_15_45
*1021 FILLER_15_48
*1022 FILLER_15_51
*1023 FILLER_15_54
*1024 FILLER_15_57
*1025 FILLER_15_6
*1026 FILLER_15_60
*1027 FILLER_15_63
*1028 FILLER_15_66
*1029 FILLER_15_69
*1030 FILLER_15_72
*1031 FILLER_15_75
*1032 FILLER_15_78
*1033 FILLER_15_81
*1034 FILLER_15_84
*1035 FILLER_15_87
*1036 FILLER_15_9
*1037 FILLER_15_90
*1038 FILLER_15_93
*1039 FILLER_15_96
*1040 FILLER_15_99
*1041 FILLER_16_100
*1042 FILLER_16_103
*1043 FILLER_16_106
*1044 FILLER_16_109
*1045 FILLER_16_112
*1046 FILLER_16_115
*1047 FILLER_16_118
*1048 FILLER_16_12
*1049 FILLER_16_121
*1050 FILLER_16_124
*1051 FILLER_16_127
*1052 FILLER_16_130
*1053 FILLER_16_133
*1054 FILLER_16_136
*1055 FILLER_16_139
*1056 FILLER_16_141
*1057 FILLER_16_144
*1058 FILLER_16_147
*1059 FILLER_16_15
*1060 FILLER_16_150
*1061 FILLER_16_153
*1062 FILLER_16_156
*1063 FILLER_16_159
*1064 FILLER_16_162
*1065 FILLER_16_165
*1066 FILLER_16_168
*1067 FILLER_16_171
*1068 FILLER_16_174
*1069 FILLER_16_177
*1070 FILLER_16_18
*1071 FILLER_16_180
*1072 FILLER_16_183
*1073 FILLER_16_186
*1074 FILLER_16_189
*1075 FILLER_16_192
*1076 FILLER_16_195
*1077 FILLER_16_197
*1078 FILLER_16_200
*1079 FILLER_16_203
*1080 FILLER_16_206
*1081 FILLER_16_209
*1082 FILLER_16_21
*1083 FILLER_16_212
*1084 FILLER_16_215
*1085 FILLER_16_218
*1086 FILLER_16_221
*1087 FILLER_16_224
*1088 FILLER_16_227
*1089 FILLER_16_230
*1090 FILLER_16_233
*1091 FILLER_16_236
*1092 FILLER_16_239
*1093 FILLER_16_24
*1094 FILLER_16_242
*1095 FILLER_16_245
*1096 FILLER_16_248
*1097 FILLER_16_251
*1098 FILLER_16_253
*1099 FILLER_16_256
*1100 FILLER_16_259
*1101 FILLER_16_262
*1102 FILLER_16_265
*1103 FILLER_16_268
*1104 FILLER_16_27
*1105 FILLER_16_271
*1106 FILLER_16_274
*1107 FILLER_16_277
*1108 FILLER_16_280
*1109 FILLER_16_283
*1110 FILLER_16_286
*1111 FILLER_16_289
*1112 FILLER_16_29
*1113 FILLER_16_292
*1114 FILLER_16_295
*1115 FILLER_16_298
*1116 FILLER_16_3
*1117 FILLER_16_301
*1118 FILLER_16_304
*1119 FILLER_16_307
*1120 FILLER_16_309
*1121 FILLER_16_312
*1122 FILLER_16_315
*1123 FILLER_16_318
*1124 FILLER_16_32
*1125 FILLER_16_321
*1126 FILLER_16_324
*1127 FILLER_16_327
*1128 FILLER_16_330
*1129 FILLER_16_333
*1130 FILLER_16_35
*1131 FILLER_16_38
*1132 FILLER_16_41
*1133 FILLER_16_44
*1134 FILLER_16_47
*1135 FILLER_16_50
*1136 FILLER_16_53
*1137 FILLER_16_56
*1138 FILLER_16_59
*1139 FILLER_16_6
*1140 FILLER_16_62
*1141 FILLER_16_65
*1142 FILLER_16_68
*1143 FILLER_16_71
*1144 FILLER_16_74
*1145 FILLER_16_77
*1146 FILLER_16_80
*1147 FILLER_16_83
*1148 FILLER_16_85
*1149 FILLER_16_88
*1150 FILLER_16_9
*1151 FILLER_16_91
*1152 FILLER_16_94
*1153 FILLER_16_97
*1154 FILLER_17_102
*1155 FILLER_17_105
*1156 FILLER_17_108
*1157 FILLER_17_111
*1158 FILLER_17_113
*1159 FILLER_17_116
*1160 FILLER_17_119
*1161 FILLER_17_12
*1162 FILLER_17_122
*1163 FILLER_17_125
*1164 FILLER_17_128
*1165 FILLER_17_131
*1166 FILLER_17_134
*1167 FILLER_17_137
*1168 FILLER_17_140
*1169 FILLER_17_143
*1170 FILLER_17_146
*1171 FILLER_17_149
*1172 FILLER_17_15
*1173 FILLER_17_152
*1174 FILLER_17_155
*1175 FILLER_17_158
*1176 FILLER_17_161
*1177 FILLER_17_164
*1178 FILLER_17_167
*1179 FILLER_17_169
*1180 FILLER_17_172
*1181 FILLER_17_175
*1182 FILLER_17_178
*1183 FILLER_17_18
*1184 FILLER_17_181
*1185 FILLER_17_184
*1186 FILLER_17_187
*1187 FILLER_17_190
*1188 FILLER_17_193
*1189 FILLER_17_196
*1190 FILLER_17_199
*1191 FILLER_17_202
*1192 FILLER_17_205
*1193 FILLER_17_208
*1194 FILLER_17_21
*1195 FILLER_17_211
*1196 FILLER_17_214
*1197 FILLER_17_217
*1198 FILLER_17_220
*1199 FILLER_17_223
*1200 FILLER_17_225
*1201 FILLER_17_228
*1202 FILLER_17_231
*1203 FILLER_17_234
*1204 FILLER_17_237
*1205 FILLER_17_24
*1206 FILLER_17_240
*1207 FILLER_17_243
*1208 FILLER_17_246
*1209 FILLER_17_249
*1210 FILLER_17_252
*1211 FILLER_17_255
*1212 FILLER_17_258
*1213 FILLER_17_261
*1214 FILLER_17_264
*1215 FILLER_17_267
*1216 FILLER_17_27
*1217 FILLER_17_270
*1218 FILLER_17_273
*1219 FILLER_17_276
*1220 FILLER_17_279
*1221 FILLER_17_281
*1222 FILLER_17_284
*1223 FILLER_17_287
*1224 FILLER_17_290
*1225 FILLER_17_293
*1226 FILLER_17_296
*1227 FILLER_17_299
*1228 FILLER_17_3
*1229 FILLER_17_30
*1230 FILLER_17_302
*1231 FILLER_17_305
*1232 FILLER_17_308
*1233 FILLER_17_311
*1234 FILLER_17_314
*1235 FILLER_17_317
*1236 FILLER_17_320
*1237 FILLER_17_323
*1238 FILLER_17_326
*1239 FILLER_17_329
*1240 FILLER_17_33
*1241 FILLER_17_332
*1242 FILLER_17_36
*1243 FILLER_17_39
*1244 FILLER_17_42
*1245 FILLER_17_45
*1246 FILLER_17_48
*1247 FILLER_17_51
*1248 FILLER_17_54
*1249 FILLER_17_57
*1250 FILLER_17_6
*1251 FILLER_17_60
*1252 FILLER_17_63
*1253 FILLER_17_66
*1254 FILLER_17_69
*1255 FILLER_17_72
*1256 FILLER_17_75
*1257 FILLER_17_78
*1258 FILLER_17_81
*1259 FILLER_17_84
*1260 FILLER_17_87
*1261 FILLER_17_9
*1262 FILLER_17_90
*1263 FILLER_17_93
*1264 FILLER_17_96
*1265 FILLER_17_99
*1266 FILLER_18_100
*1267 FILLER_18_103
*1268 FILLER_18_106
*1269 FILLER_18_109
*1270 FILLER_18_112
*1271 FILLER_18_115
*1272 FILLER_18_118
*1273 FILLER_18_12
*1274 FILLER_18_121
*1275 FILLER_18_124
*1276 FILLER_18_127
*1277 FILLER_18_130
*1278 FILLER_18_133
*1279 FILLER_18_136
*1280 FILLER_18_139
*1281 FILLER_18_141
*1282 FILLER_18_144
*1283 FILLER_18_147
*1284 FILLER_18_15
*1285 FILLER_18_150
*1286 FILLER_18_153
*1287 FILLER_18_156
*1288 FILLER_18_159
*1289 FILLER_18_162
*1290 FILLER_18_165
*1291 FILLER_18_168
*1292 FILLER_18_171
*1293 FILLER_18_174
*1294 FILLER_18_177
*1295 FILLER_18_18
*1296 FILLER_18_180
*1297 FILLER_18_183
*1298 FILLER_18_186
*1299 FILLER_18_189
*1300 FILLER_18_192
*1301 FILLER_18_195
*1302 FILLER_18_197
*1303 FILLER_18_200
*1304 FILLER_18_203
*1305 FILLER_18_206
*1306 FILLER_18_209
*1307 FILLER_18_21
*1308 FILLER_18_212
*1309 FILLER_18_215
*1310 FILLER_18_218
*1311 FILLER_18_221
*1312 FILLER_18_224
*1313 FILLER_18_227
*1314 FILLER_18_230
*1315 FILLER_18_233
*1316 FILLER_18_236
*1317 FILLER_18_239
*1318 FILLER_18_24
*1319 FILLER_18_242
*1320 FILLER_18_245
*1321 FILLER_18_248
*1322 FILLER_18_251
*1323 FILLER_18_253
*1324 FILLER_18_256
*1325 FILLER_18_259
*1326 FILLER_18_27
*1327 FILLER_18_283
*1328 FILLER_18_286
*1329 FILLER_18_29
*1330 FILLER_18_3
*1331 FILLER_18_301
*1332 FILLER_18_304
*1333 FILLER_18_307
*1334 FILLER_18_32
*1335 FILLER_18_329
*1336 FILLER_18_332
*1337 FILLER_18_35
*1338 FILLER_18_38
*1339 FILLER_18_41
*1340 FILLER_18_44
*1341 FILLER_18_47
*1342 FILLER_18_50
*1343 FILLER_18_53
*1344 FILLER_18_56
*1345 FILLER_18_59
*1346 FILLER_18_6
*1347 FILLER_18_62
*1348 FILLER_18_65
*1349 FILLER_18_68
*1350 FILLER_18_71
*1351 FILLER_18_74
*1352 FILLER_18_77
*1353 FILLER_18_80
*1354 FILLER_18_83
*1355 FILLER_18_85
*1356 FILLER_18_88
*1357 FILLER_18_9
*1358 FILLER_18_91
*1359 FILLER_18_94
*1360 FILLER_18_97
*1361 FILLER_19_101
*1362 FILLER_19_104
*1363 FILLER_19_107
*1364 FILLER_19_110
*1365 FILLER_19_113
*1366 FILLER_19_116
*1367 FILLER_19_119
*1368 FILLER_19_12
*1369 FILLER_19_122
*1370 FILLER_19_125
*1371 FILLER_19_128
*1372 FILLER_19_131
*1373 FILLER_19_134
*1374 FILLER_19_137
*1375 FILLER_19_140
*1376 FILLER_19_143
*1377 FILLER_19_146
*1378 FILLER_19_149
*1379 FILLER_19_15
*1380 FILLER_19_152
*1381 FILLER_19_155
*1382 FILLER_19_158
*1383 FILLER_19_161
*1384 FILLER_19_164
*1385 FILLER_19_167
*1386 FILLER_19_169
*1387 FILLER_19_172
*1388 FILLER_19_175
*1389 FILLER_19_178
*1390 FILLER_19_18
*1391 FILLER_19_181
*1392 FILLER_19_184
*1393 FILLER_19_187
*1394 FILLER_19_190
*1395 FILLER_19_193
*1396 FILLER_19_196
*1397 FILLER_19_199
*1398 FILLER_19_202
*1399 FILLER_19_205
*1400 FILLER_19_208
*1401 FILLER_19_21
*1402 FILLER_19_211
*1403 FILLER_19_214
*1404 FILLER_19_217
*1405 FILLER_19_220
*1406 FILLER_19_223
*1407 FILLER_19_238
*1408 FILLER_19_24
*1409 FILLER_19_241
*1410 FILLER_19_244
*1411 FILLER_19_247
*1412 FILLER_19_250
*1413 FILLER_19_253
*1414 FILLER_19_256
*1415 FILLER_19_259
*1416 FILLER_19_262
*1417 FILLER_19_265
*1418 FILLER_19_268
*1419 FILLER_19_27
*1420 FILLER_19_272
*1421 FILLER_19_275
*1422 FILLER_19_278
*1423 FILLER_19_281
*1424 FILLER_19_284
*1425 FILLER_19_295
*1426 FILLER_19_298
*1427 FILLER_19_3
*1428 FILLER_19_30
*1429 FILLER_19_301
*1430 FILLER_19_304
*1431 FILLER_19_307
*1432 FILLER_19_310
*1433 FILLER_19_324
*1434 FILLER_19_327
*1435 FILLER_19_33
*1436 FILLER_19_330
*1437 FILLER_19_333
*1438 FILLER_19_36
*1439 FILLER_19_39
*1440 FILLER_19_42
*1441 FILLER_19_45
*1442 FILLER_19_48
*1443 FILLER_19_51
*1444 FILLER_19_54
*1445 FILLER_19_6
*1446 FILLER_19_65
*1447 FILLER_19_68
*1448 FILLER_19_71
*1449 FILLER_19_74
*1450 FILLER_19_77
*1451 FILLER_19_80
*1452 FILLER_19_83
*1453 FILLER_19_86
*1454 FILLER_19_89
*1455 FILLER_19_9
*1456 FILLER_19_92
*1457 FILLER_19_95
*1458 FILLER_19_98
*1459 FILLER_1_102
*1460 FILLER_1_105
*1461 FILLER_1_108
*1462 FILLER_1_111
*1463 FILLER_1_113
*1464 FILLER_1_116
*1465 FILLER_1_119
*1466 FILLER_1_12
*1467 FILLER_1_122
*1468 FILLER_1_125
*1469 FILLER_1_128
*1470 FILLER_1_131
*1471 FILLER_1_134
*1472 FILLER_1_137
*1473 FILLER_1_140
*1474 FILLER_1_143
*1475 FILLER_1_146
*1476 FILLER_1_149
*1477 FILLER_1_15
*1478 FILLER_1_152
*1479 FILLER_1_155
*1480 FILLER_1_158
*1481 FILLER_1_161
*1482 FILLER_1_164
*1483 FILLER_1_167
*1484 FILLER_1_169
*1485 FILLER_1_172
*1486 FILLER_1_175
*1487 FILLER_1_178
*1488 FILLER_1_18
*1489 FILLER_1_181
*1490 FILLER_1_184
*1491 FILLER_1_187
*1492 FILLER_1_190
*1493 FILLER_1_193
*1494 FILLER_1_196
*1495 FILLER_1_199
*1496 FILLER_1_202
*1497 FILLER_1_205
*1498 FILLER_1_208
*1499 FILLER_1_21
*1500 FILLER_1_211
*1501 FILLER_1_214
*1502 FILLER_1_217
*1503 FILLER_1_220
*1504 FILLER_1_223
*1505 FILLER_1_225
*1506 FILLER_1_228
*1507 FILLER_1_231
*1508 FILLER_1_234
*1509 FILLER_1_237
*1510 FILLER_1_24
*1511 FILLER_1_240
*1512 FILLER_1_243
*1513 FILLER_1_246
*1514 FILLER_1_249
*1515 FILLER_1_252
*1516 FILLER_1_255
*1517 FILLER_1_258
*1518 FILLER_1_261
*1519 FILLER_1_264
*1520 FILLER_1_267
*1521 FILLER_1_27
*1522 FILLER_1_270
*1523 FILLER_1_273
*1524 FILLER_1_276
*1525 FILLER_1_279
*1526 FILLER_1_281
*1527 FILLER_1_284
*1528 FILLER_1_287
*1529 FILLER_1_290
*1530 FILLER_1_293
*1531 FILLER_1_296
*1532 FILLER_1_299
*1533 FILLER_1_3
*1534 FILLER_1_30
*1535 FILLER_1_302
*1536 FILLER_1_305
*1537 FILLER_1_308
*1538 FILLER_1_311
*1539 FILLER_1_314
*1540 FILLER_1_317
*1541 FILLER_1_320
*1542 FILLER_1_323
*1543 FILLER_1_326
*1544 FILLER_1_329
*1545 FILLER_1_33
*1546 FILLER_1_332
*1547 FILLER_1_36
*1548 FILLER_1_39
*1549 FILLER_1_42
*1550 FILLER_1_45
*1551 FILLER_1_48
*1552 FILLER_1_51
*1553 FILLER_1_54
*1554 FILLER_1_57
*1555 FILLER_1_6
*1556 FILLER_1_60
*1557 FILLER_1_63
*1558 FILLER_1_66
*1559 FILLER_1_69
*1560 FILLER_1_72
*1561 FILLER_1_75
*1562 FILLER_1_78
*1563 FILLER_1_81
*1564 FILLER_1_84
*1565 FILLER_1_87
*1566 FILLER_1_9
*1567 FILLER_1_90
*1568 FILLER_1_93
*1569 FILLER_1_96
*1570 FILLER_1_99
*1571 FILLER_20_106
*1572 FILLER_20_111
*1573 FILLER_20_114
*1574 FILLER_20_117
*1575 FILLER_20_12
*1576 FILLER_20_120
*1577 FILLER_20_123
*1578 FILLER_20_126
*1579 FILLER_20_129
*1580 FILLER_20_132
*1581 FILLER_20_135
*1582 FILLER_20_138
*1583 FILLER_20_141
*1584 FILLER_20_144
*1585 FILLER_20_147
*1586 FILLER_20_15
*1587 FILLER_20_150
*1588 FILLER_20_153
*1589 FILLER_20_156
*1590 FILLER_20_159
*1591 FILLER_20_162
*1592 FILLER_20_165
*1593 FILLER_20_168
*1594 FILLER_20_171
*1595 FILLER_20_174
*1596 FILLER_20_177
*1597 FILLER_20_18
*1598 FILLER_20_180
*1599 FILLER_20_183
*1600 FILLER_20_186
*1601 FILLER_20_189
*1602 FILLER_20_192
*1603 FILLER_20_195
*1604 FILLER_20_197
*1605 FILLER_20_200
*1606 FILLER_20_203
*1607 FILLER_20_206
*1608 FILLER_20_209
*1609 FILLER_20_21
*1610 FILLER_20_212
*1611 FILLER_20_215
*1612 FILLER_20_218
*1613 FILLER_20_221
*1614 FILLER_20_24
*1615 FILLER_20_241
*1616 FILLER_20_244
*1617 FILLER_20_247
*1618 FILLER_20_250
*1619 FILLER_20_253
*1620 FILLER_20_256
*1621 FILLER_20_259
*1622 FILLER_20_262
*1623 FILLER_20_265
*1624 FILLER_20_268
*1625 FILLER_20_27
*1626 FILLER_20_271
*1627 FILLER_20_274
*1628 FILLER_20_277
*1629 FILLER_20_280
*1630 FILLER_20_283
*1631 FILLER_20_286
*1632 FILLER_20_289
*1633 FILLER_20_29
*1634 FILLER_20_292
*1635 FILLER_20_295
*1636 FILLER_20_298
*1637 FILLER_20_3
*1638 FILLER_20_301
*1639 FILLER_20_304
*1640 FILLER_20_307
*1641 FILLER_20_309
*1642 FILLER_20_312
*1643 FILLER_20_315
*1644 FILLER_20_318
*1645 FILLER_20_32
*1646 FILLER_20_321
*1647 FILLER_20_324
*1648 FILLER_20_327
*1649 FILLER_20_330
*1650 FILLER_20_333
*1651 FILLER_20_35
*1652 FILLER_20_38
*1653 FILLER_20_41
*1654 FILLER_20_44
*1655 FILLER_20_47
*1656 FILLER_20_50
*1657 FILLER_20_59
*1658 FILLER_20_6
*1659 FILLER_20_62
*1660 FILLER_20_65
*1661 FILLER_20_68
*1662 FILLER_20_71
*1663 FILLER_20_74
*1664 FILLER_20_77
*1665 FILLER_20_80
*1666 FILLER_20_83
*1667 FILLER_20_85
*1668 FILLER_20_88
*1669 FILLER_20_9
*1670 FILLER_20_91
*1671 FILLER_21_111
*1672 FILLER_21_12
*1673 FILLER_21_122
*1674 FILLER_21_125
*1675 FILLER_21_128
*1676 FILLER_21_131
*1677 FILLER_21_140
*1678 FILLER_21_143
*1679 FILLER_21_146
*1680 FILLER_21_149
*1681 FILLER_21_15
*1682 FILLER_21_158
*1683 FILLER_21_161
*1684 FILLER_21_164
*1685 FILLER_21_167
*1686 FILLER_21_169
*1687 FILLER_21_172
*1688 FILLER_21_175
*1689 FILLER_21_178
*1690 FILLER_21_181
*1691 FILLER_21_184
*1692 FILLER_21_198
*1693 FILLER_21_201
*1694 FILLER_21_204
*1695 FILLER_21_207
*1696 FILLER_21_210
*1697 FILLER_21_213
*1698 FILLER_21_216
*1699 FILLER_21_219
*1700 FILLER_21_222
*1701 FILLER_21_225
*1702 FILLER_21_228
*1703 FILLER_21_231
*1704 FILLER_21_234
*1705 FILLER_21_237
*1706 FILLER_21_240
*1707 FILLER_21_243
*1708 FILLER_21_246
*1709 FILLER_21_249
*1710 FILLER_21_252
*1711 FILLER_21_255
*1712 FILLER_21_258
*1713 FILLER_21_266
*1714 FILLER_21_269
*1715 FILLER_21_274
*1716 FILLER_21_277
*1717 FILLER_21_281
*1718 FILLER_21_284
*1719 FILLER_21_293
*1720 FILLER_21_296
*1721 FILLER_21_299
*1722 FILLER_21_3
*1723 FILLER_21_302
*1724 FILLER_21_305
*1725 FILLER_21_308
*1726 FILLER_21_311
*1727 FILLER_21_314
*1728 FILLER_21_320
*1729 FILLER_21_323
*1730 FILLER_21_326
*1731 FILLER_21_329
*1732 FILLER_21_332
*1733 FILLER_21_35
*1734 FILLER_21_38
*1735 FILLER_21_41
*1736 FILLER_21_44
*1737 FILLER_21_47
*1738 FILLER_21_50
*1739 FILLER_21_57
*1740 FILLER_21_6
*1741 FILLER_21_66
*1742 FILLER_21_75
*1743 FILLER_21_78
*1744 FILLER_21_84
*1745 FILLER_21_87
*1746 FILLER_21_9
*1747 FILLER_21_90
*1748 FILLER_21_93
*1749 FILLER_21_99
*1750 FILLER_22_100
*1751 FILLER_22_103
*1752 FILLER_22_108
*1753 FILLER_22_111
*1754 FILLER_22_114
*1755 FILLER_22_117
*1756 FILLER_22_12
*1757 FILLER_22_120
*1758 FILLER_22_123
*1759 FILLER_22_126
*1760 FILLER_22_129
*1761 FILLER_22_132
*1762 FILLER_22_135
*1763 FILLER_22_138
*1764 FILLER_22_141
*1765 FILLER_22_15
*1766 FILLER_22_153
*1767 FILLER_22_156
*1768 FILLER_22_164
*1769 FILLER_22_167
*1770 FILLER_22_177
*1771 FILLER_22_18
*1772 FILLER_22_180
*1773 FILLER_22_185
*1774 FILLER_22_188
*1775 FILLER_22_191
*1776 FILLER_22_194
*1777 FILLER_22_197
*1778 FILLER_22_200
*1779 FILLER_22_203
*1780 FILLER_22_206
*1781 FILLER_22_209
*1782 FILLER_22_21
*1783 FILLER_22_212
*1784 FILLER_22_215
*1785 FILLER_22_218
*1786 FILLER_22_221
*1787 FILLER_22_224
*1788 FILLER_22_227
*1789 FILLER_22_230
*1790 FILLER_22_233
*1791 FILLER_22_236
*1792 FILLER_22_239
*1793 FILLER_22_242
*1794 FILLER_22_245
*1795 FILLER_22_248
*1796 FILLER_22_251
*1797 FILLER_22_274
*1798 FILLER_22_277
*1799 FILLER_22_280
*1800 FILLER_22_283
*1801 FILLER_22_286
*1802 FILLER_22_289
*1803 FILLER_22_29
*1804 FILLER_22_292
*1805 FILLER_22_3
*1806 FILLER_22_305
*1807 FILLER_22_32
*1808 FILLER_22_332
*1809 FILLER_22_35
*1810 FILLER_22_38
*1811 FILLER_22_41
*1812 FILLER_22_44
*1813 FILLER_22_47
*1814 FILLER_22_50
*1815 FILLER_22_53
*1816 FILLER_22_56
*1817 FILLER_22_59
*1818 FILLER_22_6
*1819 FILLER_22_62
*1820 FILLER_22_65
*1821 FILLER_22_68
*1822 FILLER_22_77
*1823 FILLER_22_80
*1824 FILLER_22_83
*1825 FILLER_22_85
*1826 FILLER_22_88
*1827 FILLER_22_9
*1828 FILLER_22_91
*1829 FILLER_22_94
*1830 FILLER_22_97
*1831 FILLER_23_102
*1832 FILLER_23_105
*1833 FILLER_23_108
*1834 FILLER_23_111
*1835 FILLER_23_113
*1836 FILLER_23_116
*1837 FILLER_23_119
*1838 FILLER_23_12
*1839 FILLER_23_122
*1840 FILLER_23_125
*1841 FILLER_23_128
*1842 FILLER_23_131
*1843 FILLER_23_134
*1844 FILLER_23_137
*1845 FILLER_23_140
*1846 FILLER_23_146
*1847 FILLER_23_15
*1848 FILLER_23_157
*1849 FILLER_23_160
*1850 FILLER_23_163
*1851 FILLER_23_166
*1852 FILLER_23_169
*1853 FILLER_23_172
*1854 FILLER_23_175
*1855 FILLER_23_192
*1856 FILLER_23_195
*1857 FILLER_23_198
*1858 FILLER_23_201
*1859 FILLER_23_204
*1860 FILLER_23_207
*1861 FILLER_23_210
*1862 FILLER_23_213
*1863 FILLER_23_216
*1864 FILLER_23_219
*1865 FILLER_23_222
*1866 FILLER_23_225
*1867 FILLER_23_228
*1868 FILLER_23_23
*1869 FILLER_23_231
*1870 FILLER_23_234
*1871 FILLER_23_237
*1872 FILLER_23_240
*1873 FILLER_23_243
*1874 FILLER_23_246
*1875 FILLER_23_249
*1876 FILLER_23_265
*1877 FILLER_23_268
*1878 FILLER_23_271
*1879 FILLER_23_274
*1880 FILLER_23_277
*1881 FILLER_23_281
*1882 FILLER_23_284
*1883 FILLER_23_287
*1884 FILLER_23_29
*1885 FILLER_23_290
*1886 FILLER_23_293
*1887 FILLER_23_296
*1888 FILLER_23_3
*1889 FILLER_23_302
*1890 FILLER_23_305
*1891 FILLER_23_308
*1892 FILLER_23_311
*1893 FILLER_23_314
*1894 FILLER_23_317
*1895 FILLER_23_32
*1896 FILLER_23_320
*1897 FILLER_23_323
*1898 FILLER_23_326
*1899 FILLER_23_329
*1900 FILLER_23_332
*1901 FILLER_23_35
*1902 FILLER_23_38
*1903 FILLER_23_41
*1904 FILLER_23_44
*1905 FILLER_23_47
*1906 FILLER_23_57
*1907 FILLER_23_6
*1908 FILLER_23_60
*1909 FILLER_23_63
*1910 FILLER_23_66
*1911 FILLER_23_75
*1912 FILLER_23_78
*1913 FILLER_23_81
*1914 FILLER_23_84
*1915 FILLER_23_87
*1916 FILLER_23_9
*1917 FILLER_23_90
*1918 FILLER_23_93
*1919 FILLER_23_96
*1920 FILLER_23_99
*1921 FILLER_24_105
*1922 FILLER_24_108
*1923 FILLER_24_111
*1924 FILLER_24_114
*1925 FILLER_24_117
*1926 FILLER_24_12
*1927 FILLER_24_126
*1928 FILLER_24_129
*1929 FILLER_24_132
*1930 FILLER_24_135
*1931 FILLER_24_138
*1932 FILLER_24_141
*1933 FILLER_24_144
*1934 FILLER_24_147
*1935 FILLER_24_15
*1936 FILLER_24_150
*1937 FILLER_24_153
*1938 FILLER_24_156
*1939 FILLER_24_159
*1940 FILLER_24_162
*1941 FILLER_24_169
*1942 FILLER_24_172
*1943 FILLER_24_175
*1944 FILLER_24_178
*1945 FILLER_24_18
*1946 FILLER_24_181
*1947 FILLER_24_184
*1948 FILLER_24_192
*1949 FILLER_24_195
*1950 FILLER_24_197
*1951 FILLER_24_200
*1952 FILLER_24_203
*1953 FILLER_24_21
*1954 FILLER_24_217
*1955 FILLER_24_230
*1956 FILLER_24_233
*1957 FILLER_24_236
*1958 FILLER_24_239
*1959 FILLER_24_242
*1960 FILLER_24_245
*1961 FILLER_24_248
*1962 FILLER_24_25
*1963 FILLER_24_251
*1964 FILLER_24_253
*1965 FILLER_24_256
*1966 FILLER_24_259
*1967 FILLER_24_262
*1968 FILLER_24_265
*1969 FILLER_24_268
*1970 FILLER_24_271
*1971 FILLER_24_274
*1972 FILLER_24_277
*1973 FILLER_24_280
*1974 FILLER_24_283
*1975 FILLER_24_286
*1976 FILLER_24_289
*1977 FILLER_24_29
*1978 FILLER_24_292
*1979 FILLER_24_295
*1980 FILLER_24_298
*1981 FILLER_24_3
*1982 FILLER_24_301
*1983 FILLER_24_304
*1984 FILLER_24_307
*1985 FILLER_24_309
*1986 FILLER_24_315
*1987 FILLER_24_318
*1988 FILLER_24_32
*1989 FILLER_24_321
*1990 FILLER_24_324
*1991 FILLER_24_327
*1992 FILLER_24_330
*1993 FILLER_24_333
*1994 FILLER_24_35
*1995 FILLER_24_38
*1996 FILLER_24_41
*1997 FILLER_24_44
*1998 FILLER_24_47
*1999 FILLER_24_50
*2000 FILLER_24_53
*2001 FILLER_24_56
*2002 FILLER_24_6
*2003 FILLER_24_65
*2004 FILLER_24_68
*2005 FILLER_24_71
*2006 FILLER_24_74
*2007 FILLER_24_77
*2008 FILLER_24_80
*2009 FILLER_24_83
*2010 FILLER_24_85
*2011 FILLER_24_88
*2012 FILLER_24_9
*2013 FILLER_24_91
*2014 FILLER_24_94
*2015 FILLER_25_111
*2016 FILLER_25_12
*2017 FILLER_25_124
*2018 FILLER_25_127
*2019 FILLER_25_130
*2020 FILLER_25_133
*2021 FILLER_25_136
*2022 FILLER_25_139
*2023 FILLER_25_142
*2024 FILLER_25_145
*2025 FILLER_25_148
*2026 FILLER_25_151
*2027 FILLER_25_154
*2028 FILLER_25_157
*2029 FILLER_25_160
*2030 FILLER_25_163
*2031 FILLER_25_166
*2032 FILLER_25_169
*2033 FILLER_25_172
*2034 FILLER_25_175
*2035 FILLER_25_178
*2036 FILLER_25_181
*2037 FILLER_25_184
*2038 FILLER_25_191
*2039 FILLER_25_194
*2040 FILLER_25_197
*2041 FILLER_25_200
*2042 FILLER_25_203
*2043 FILLER_25_206
*2044 FILLER_25_209
*2045 FILLER_25_228
*2046 FILLER_25_231
*2047 FILLER_25_234
*2048 FILLER_25_237
*2049 FILLER_25_240
*2050 FILLER_25_243
*2051 FILLER_25_246
*2052 FILLER_25_249
*2053 FILLER_25_252
*2054 FILLER_25_255
*2055 FILLER_25_258
*2056 FILLER_25_261
*2057 FILLER_25_264
*2058 FILLER_25_272
*2059 FILLER_25_275
*2060 FILLER_25_278
*2061 FILLER_25_281
*2062 FILLER_25_284
*2063 FILLER_25_287
*2064 FILLER_25_290
*2065 FILLER_25_3
*2066 FILLER_25_323
*2067 FILLER_25_326
*2068 FILLER_25_329
*2069 FILLER_25_332
*2070 FILLER_25_35
*2071 FILLER_25_38
*2072 FILLER_25_41
*2073 FILLER_25_44
*2074 FILLER_25_47
*2075 FILLER_25_50
*2076 FILLER_25_53
*2077 FILLER_25_57
*2078 FILLER_25_6
*2079 FILLER_25_72
*2080 FILLER_25_75
*2081 FILLER_25_78
*2082 FILLER_25_81
*2083 FILLER_25_84
*2084 FILLER_25_87
*2085 FILLER_25_9
*2086 FILLER_25_90
*2087 FILLER_25_93
*2088 FILLER_25_96
*2089 FILLER_26_103
*2090 FILLER_26_106
*2091 FILLER_26_112
*2092 FILLER_26_115
*2093 FILLER_26_118
*2094 FILLER_26_12
*2095 FILLER_26_121
*2096 FILLER_26_124
*2097 FILLER_26_127
*2098 FILLER_26_130
*2099 FILLER_26_133
*2100 FILLER_26_136
*2101 FILLER_26_139
*2102 FILLER_26_141
*2103 FILLER_26_147
*2104 FILLER_26_15
*2105 FILLER_26_150
*2106 FILLER_26_153
*2107 FILLER_26_156
*2108 FILLER_26_159
*2109 FILLER_26_162
*2110 FILLER_26_165
*2111 FILLER_26_168
*2112 FILLER_26_171
*2113 FILLER_26_18
*2114 FILLER_26_180
*2115 FILLER_26_183
*2116 FILLER_26_186
*2117 FILLER_26_189
*2118 FILLER_26_192
*2119 FILLER_26_195
*2120 FILLER_26_197
*2121 FILLER_26_200
*2122 FILLER_26_203
*2123 FILLER_26_206
*2124 FILLER_26_209
*2125 FILLER_26_21
*2126 FILLER_26_212
*2127 FILLER_26_215
*2128 FILLER_26_218
*2129 FILLER_26_221
*2130 FILLER_26_224
*2131 FILLER_26_227
*2132 FILLER_26_235
*2133 FILLER_26_238
*2134 FILLER_26_241
*2135 FILLER_26_244
*2136 FILLER_26_247
*2137 FILLER_26_250
*2138 FILLER_26_253
*2139 FILLER_26_281
*2140 FILLER_26_284
*2141 FILLER_26_287
*2142 FILLER_26_29
*2143 FILLER_26_290
*2144 FILLER_26_293
*2145 FILLER_26_296
*2146 FILLER_26_299
*2147 FILLER_26_3
*2148 FILLER_26_302
*2149 FILLER_26_305
*2150 FILLER_26_32
*2151 FILLER_26_332
*2152 FILLER_26_35
*2153 FILLER_26_38
*2154 FILLER_26_41
*2155 FILLER_26_44
*2156 FILLER_26_47
*2157 FILLER_26_50
*2158 FILLER_26_53
*2159 FILLER_26_56
*2160 FILLER_26_59
*2161 FILLER_26_6
*2162 FILLER_26_62
*2163 FILLER_26_65
*2164 FILLER_26_68
*2165 FILLER_26_71
*2166 FILLER_26_74
*2167 FILLER_26_77
*2168 FILLER_26_80
*2169 FILLER_26_83
*2170 FILLER_26_85
*2171 FILLER_26_88
*2172 FILLER_26_9
*2173 FILLER_26_91
*2174 FILLER_26_94
*2175 FILLER_26_97
*2176 FILLER_27_101
*2177 FILLER_27_104
*2178 FILLER_27_107
*2179 FILLER_27_110
*2180 FILLER_27_113
*2181 FILLER_27_116
*2182 FILLER_27_119
*2183 FILLER_27_12
*2184 FILLER_27_122
*2185 FILLER_27_125
*2186 FILLER_27_128
*2187 FILLER_27_131
*2188 FILLER_27_15
*2189 FILLER_27_169
*2190 FILLER_27_172
*2191 FILLER_27_175
*2192 FILLER_27_178
*2193 FILLER_27_18
*2194 FILLER_27_181
*2195 FILLER_27_184
*2196 FILLER_27_187
*2197 FILLER_27_190
*2198 FILLER_27_193
*2199 FILLER_27_196
*2200 FILLER_27_199
*2201 FILLER_27_202
*2202 FILLER_27_205
*2203 FILLER_27_208
*2204 FILLER_27_21
*2205 FILLER_27_211
*2206 FILLER_27_214
*2207 FILLER_27_217
*2208 FILLER_27_222
*2209 FILLER_27_225
*2210 FILLER_27_228
*2211 FILLER_27_231
*2212 FILLER_27_234
*2213 FILLER_27_237
*2214 FILLER_27_24
*2215 FILLER_27_240
*2216 FILLER_27_243
*2217 FILLER_27_246
*2218 FILLER_27_249
*2219 FILLER_27_252
*2220 FILLER_27_255
*2221 FILLER_27_258
*2222 FILLER_27_261
*2223 FILLER_27_264
*2224 FILLER_27_267
*2225 FILLER_27_270
*2226 FILLER_27_273
*2227 FILLER_27_276
*2228 FILLER_27_279
*2229 FILLER_27_28
*2230 FILLER_27_281
*2231 FILLER_27_284
*2232 FILLER_27_287
*2233 FILLER_27_290
*2234 FILLER_27_293
*2235 FILLER_27_3
*2236 FILLER_27_31
*2237 FILLER_27_324
*2238 FILLER_27_327
*2239 FILLER_27_330
*2240 FILLER_27_333
*2241 FILLER_27_34
*2242 FILLER_27_37
*2243 FILLER_27_40
*2244 FILLER_27_43
*2245 FILLER_27_46
*2246 FILLER_27_49
*2247 FILLER_27_6
*2248 FILLER_27_65
*2249 FILLER_27_68
*2250 FILLER_27_77
*2251 FILLER_27_80
*2252 FILLER_27_83
*2253 FILLER_27_86
*2254 FILLER_27_89
*2255 FILLER_27_9
*2256 FILLER_27_92
*2257 FILLER_27_95
*2258 FILLER_27_98
*2259 FILLER_28_109
*2260 FILLER_28_112
*2261 FILLER_28_115
*2262 FILLER_28_118
*2263 FILLER_28_12
*2264 FILLER_28_121
*2265 FILLER_28_124
*2266 FILLER_28_132
*2267 FILLER_28_135
*2268 FILLER_28_138
*2269 FILLER_28_141
*2270 FILLER_28_144
*2271 FILLER_28_147
*2272 FILLER_28_15
*2273 FILLER_28_153
*2274 FILLER_28_156
*2275 FILLER_28_159
*2276 FILLER_28_162
*2277 FILLER_28_165
*2278 FILLER_28_168
*2279 FILLER_28_171
*2280 FILLER_28_174
*2281 FILLER_28_177
*2282 FILLER_28_18
*2283 FILLER_28_187
*2284 FILLER_28_190
*2285 FILLER_28_193
*2286 FILLER_28_197
*2287 FILLER_28_200
*2288 FILLER_28_203
*2289 FILLER_28_206
*2290 FILLER_28_209
*2291 FILLER_28_21
*2292 FILLER_28_212
*2293 FILLER_28_215
*2294 FILLER_28_230
*2295 FILLER_28_233
*2296 FILLER_28_236
*2297 FILLER_28_239
*2298 FILLER_28_24
*2299 FILLER_28_242
*2300 FILLER_28_245
*2301 FILLER_28_248
*2302 FILLER_28_251
*2303 FILLER_28_253
*2304 FILLER_28_256
*2305 FILLER_28_259
*2306 FILLER_28_262
*2307 FILLER_28_265
*2308 FILLER_28_268
*2309 FILLER_28_27
*2310 FILLER_28_271
*2311 FILLER_28_274
*2312 FILLER_28_288
*2313 FILLER_28_29
*2314 FILLER_28_291
*2315 FILLER_28_294
*2316 FILLER_28_297
*2317 FILLER_28_3
*2318 FILLER_28_300
*2319 FILLER_28_303
*2320 FILLER_28_306
*2321 FILLER_28_309
*2322 FILLER_28_312
*2323 FILLER_28_315
*2324 FILLER_28_32
*2325 FILLER_28_320
*2326 FILLER_28_323
*2327 FILLER_28_326
*2328 FILLER_28_329
*2329 FILLER_28_332
*2330 FILLER_28_35
*2331 FILLER_28_38
*2332 FILLER_28_41
*2333 FILLER_28_44
*2334 FILLER_28_47
*2335 FILLER_28_50
*2336 FILLER_28_53
*2337 FILLER_28_6
*2338 FILLER_28_61
*2339 FILLER_28_69
*2340 FILLER_28_72
*2341 FILLER_28_75
*2342 FILLER_28_78
*2343 FILLER_28_81
*2344 FILLER_28_85
*2345 FILLER_28_88
*2346 FILLER_28_9
*2347 FILLER_28_91
*2348 FILLER_28_94
*2349 FILLER_29_101
*2350 FILLER_29_110
*2351 FILLER_29_113
*2352 FILLER_29_116
*2353 FILLER_29_119
*2354 FILLER_29_12
*2355 FILLER_29_122
*2356 FILLER_29_125
*2357 FILLER_29_128
*2358 FILLER_29_131
*2359 FILLER_29_134
*2360 FILLER_29_137
*2361 FILLER_29_140
*2362 FILLER_29_143
*2363 FILLER_29_146
*2364 FILLER_29_149
*2365 FILLER_29_15
*2366 FILLER_29_152
*2367 FILLER_29_155
*2368 FILLER_29_158
*2369 FILLER_29_161
*2370 FILLER_29_164
*2371 FILLER_29_167
*2372 FILLER_29_169
*2373 FILLER_29_172
*2374 FILLER_29_175
*2375 FILLER_29_184
*2376 FILLER_29_187
*2377 FILLER_29_197
*2378 FILLER_29_200
*2379 FILLER_29_209
*2380 FILLER_29_212
*2381 FILLER_29_221
*2382 FILLER_29_225
*2383 FILLER_29_228
*2384 FILLER_29_231
*2385 FILLER_29_234
*2386 FILLER_29_237
*2387 FILLER_29_240
*2388 FILLER_29_243
*2389 FILLER_29_246
*2390 FILLER_29_249
*2391 FILLER_29_252
*2392 FILLER_29_255
*2393 FILLER_29_258
*2394 FILLER_29_261
*2395 FILLER_29_264
*2396 FILLER_29_267
*2397 FILLER_29_270
*2398 FILLER_29_273
*2399 FILLER_29_276
*2400 FILLER_29_279
*2401 FILLER_29_281
*2402 FILLER_29_284
*2403 FILLER_29_287
*2404 FILLER_29_290
*2405 FILLER_29_293
*2406 FILLER_29_296
*2407 FILLER_29_299
*2408 FILLER_29_3
*2409 FILLER_29_302
*2410 FILLER_29_326
*2411 FILLER_29_329
*2412 FILLER_29_332
*2413 FILLER_29_36
*2414 FILLER_29_39
*2415 FILLER_29_42
*2416 FILLER_29_45
*2417 FILLER_29_48
*2418 FILLER_29_51
*2419 FILLER_29_54
*2420 FILLER_29_57
*2421 FILLER_29_6
*2422 FILLER_29_60
*2423 FILLER_29_63
*2424 FILLER_29_68
*2425 FILLER_29_71
*2426 FILLER_29_74
*2427 FILLER_29_77
*2428 FILLER_29_80
*2429 FILLER_29_83
*2430 FILLER_29_86
*2431 FILLER_29_89
*2432 FILLER_29_9
*2433 FILLER_29_92
*2434 FILLER_29_95
*2435 FILLER_29_98
*2436 FILLER_2_100
*2437 FILLER_2_103
*2438 FILLER_2_106
*2439 FILLER_2_109
*2440 FILLER_2_112
*2441 FILLER_2_115
*2442 FILLER_2_118
*2443 FILLER_2_12
*2444 FILLER_2_121
*2445 FILLER_2_124
*2446 FILLER_2_127
*2447 FILLER_2_130
*2448 FILLER_2_133
*2449 FILLER_2_136
*2450 FILLER_2_139
*2451 FILLER_2_141
*2452 FILLER_2_144
*2453 FILLER_2_147
*2454 FILLER_2_15
*2455 FILLER_2_150
*2456 FILLER_2_153
*2457 FILLER_2_156
*2458 FILLER_2_159
*2459 FILLER_2_162
*2460 FILLER_2_165
*2461 FILLER_2_168
*2462 FILLER_2_171
*2463 FILLER_2_174
*2464 FILLER_2_177
*2465 FILLER_2_18
*2466 FILLER_2_180
*2467 FILLER_2_183
*2468 FILLER_2_186
*2469 FILLER_2_189
*2470 FILLER_2_192
*2471 FILLER_2_195
*2472 FILLER_2_197
*2473 FILLER_2_200
*2474 FILLER_2_203
*2475 FILLER_2_206
*2476 FILLER_2_209
*2477 FILLER_2_21
*2478 FILLER_2_212
*2479 FILLER_2_215
*2480 FILLER_2_218
*2481 FILLER_2_221
*2482 FILLER_2_224
*2483 FILLER_2_227
*2484 FILLER_2_230
*2485 FILLER_2_233
*2486 FILLER_2_236
*2487 FILLER_2_239
*2488 FILLER_2_24
*2489 FILLER_2_242
*2490 FILLER_2_245
*2491 FILLER_2_248
*2492 FILLER_2_251
*2493 FILLER_2_253
*2494 FILLER_2_256
*2495 FILLER_2_259
*2496 FILLER_2_262
*2497 FILLER_2_265
*2498 FILLER_2_268
*2499 FILLER_2_27
*2500 FILLER_2_271
*2501 FILLER_2_274
*2502 FILLER_2_277
*2503 FILLER_2_280
*2504 FILLER_2_283
*2505 FILLER_2_286
*2506 FILLER_2_289
*2507 FILLER_2_29
*2508 FILLER_2_292
*2509 FILLER_2_295
*2510 FILLER_2_298
*2511 FILLER_2_3
*2512 FILLER_2_301
*2513 FILLER_2_304
*2514 FILLER_2_307
*2515 FILLER_2_309
*2516 FILLER_2_312
*2517 FILLER_2_315
*2518 FILLER_2_318
*2519 FILLER_2_32
*2520 FILLER_2_321
*2521 FILLER_2_324
*2522 FILLER_2_327
*2523 FILLER_2_330
*2524 FILLER_2_333
*2525 FILLER_2_35
*2526 FILLER_2_38
*2527 FILLER_2_41
*2528 FILLER_2_44
*2529 FILLER_2_47
*2530 FILLER_2_50
*2531 FILLER_2_53
*2532 FILLER_2_56
*2533 FILLER_2_59
*2534 FILLER_2_6
*2535 FILLER_2_62
*2536 FILLER_2_65
*2537 FILLER_2_68
*2538 FILLER_2_71
*2539 FILLER_2_74
*2540 FILLER_2_77
*2541 FILLER_2_80
*2542 FILLER_2_83
*2543 FILLER_2_85
*2544 FILLER_2_88
*2545 FILLER_2_9
*2546 FILLER_2_91
*2547 FILLER_2_94
*2548 FILLER_2_97
*2549 FILLER_30_115
*2550 FILLER_30_118
*2551 FILLER_30_12
*2552 FILLER_30_121
*2553 FILLER_30_124
*2554 FILLER_30_127
*2555 FILLER_30_130
*2556 FILLER_30_133
*2557 FILLER_30_136
*2558 FILLER_30_139
*2559 FILLER_30_141
*2560 FILLER_30_146
*2561 FILLER_30_149
*2562 FILLER_30_15
*2563 FILLER_30_152
*2564 FILLER_30_155
*2565 FILLER_30_158
*2566 FILLER_30_161
*2567 FILLER_30_164
*2568 FILLER_30_167
*2569 FILLER_30_170
*2570 FILLER_30_173
*2571 FILLER_30_176
*2572 FILLER_30_179
*2573 FILLER_30_18
*2574 FILLER_30_185
*2575 FILLER_30_195
*2576 FILLER_30_197
*2577 FILLER_30_200
*2578 FILLER_30_209
*2579 FILLER_30_212
*2580 FILLER_30_215
*2581 FILLER_30_218
*2582 FILLER_30_221
*2583 FILLER_30_224
*2584 FILLER_30_227
*2585 FILLER_30_230
*2586 FILLER_30_233
*2587 FILLER_30_236
*2588 FILLER_30_239
*2589 FILLER_30_242
*2590 FILLER_30_245
*2591 FILLER_30_248
*2592 FILLER_30_251
*2593 FILLER_30_253
*2594 FILLER_30_256
*2595 FILLER_30_274
*2596 FILLER_30_277
*2597 FILLER_30_280
*2598 FILLER_30_283
*2599 FILLER_30_286
*2600 FILLER_30_289
*2601 FILLER_30_292
*2602 FILLER_30_295
*2603 FILLER_30_3
*2604 FILLER_30_306
*2605 FILLER_30_309
*2606 FILLER_30_312
*2607 FILLER_30_318
*2608 FILLER_30_321
*2609 FILLER_30_324
*2610 FILLER_30_327
*2611 FILLER_30_330
*2612 FILLER_30_333
*2613 FILLER_30_38
*2614 FILLER_30_41
*2615 FILLER_30_44
*2616 FILLER_30_47
*2617 FILLER_30_50
*2618 FILLER_30_53
*2619 FILLER_30_56
*2620 FILLER_30_6
*2621 FILLER_30_65
*2622 FILLER_30_68
*2623 FILLER_30_71
*2624 FILLER_30_74
*2625 FILLER_30_77
*2626 FILLER_30_80
*2627 FILLER_30_83
*2628 FILLER_30_85
*2629 FILLER_30_88
*2630 FILLER_30_9
*2631 FILLER_30_91
*2632 FILLER_30_94
*2633 FILLER_30_97
*2634 FILLER_31_100
*2635 FILLER_31_106
*2636 FILLER_31_109
*2637 FILLER_31_113
*2638 FILLER_31_116
*2639 FILLER_31_119
*2640 FILLER_31_12
*2641 FILLER_31_122
*2642 FILLER_31_125
*2643 FILLER_31_128
*2644 FILLER_31_131
*2645 FILLER_31_134
*2646 FILLER_31_15
*2647 FILLER_31_154
*2648 FILLER_31_163
*2649 FILLER_31_166
*2650 FILLER_31_169
*2651 FILLER_31_18
*2652 FILLER_31_180
*2653 FILLER_31_183
*2654 FILLER_31_186
*2655 FILLER_31_189
*2656 FILLER_31_192
*2657 FILLER_31_195
*2658 FILLER_31_198
*2659 FILLER_31_201
*2660 FILLER_31_204
*2661 FILLER_31_207
*2662 FILLER_31_21
*2663 FILLER_31_210
*2664 FILLER_31_213
*2665 FILLER_31_216
*2666 FILLER_31_219
*2667 FILLER_31_222
*2668 FILLER_31_225
*2669 FILLER_31_228
*2670 FILLER_31_238
*2671 FILLER_31_24
*2672 FILLER_31_241
*2673 FILLER_31_244
*2674 FILLER_31_247
*2675 FILLER_31_250
*2676 FILLER_31_253
*2677 FILLER_31_256
*2678 FILLER_31_265
*2679 FILLER_31_268
*2680 FILLER_31_271
*2681 FILLER_31_277
*2682 FILLER_31_281
*2683 FILLER_31_284
*2684 FILLER_31_287
*2685 FILLER_31_29
*2686 FILLER_31_290
*2687 FILLER_31_293
*2688 FILLER_31_296
*2689 FILLER_31_3
*2690 FILLER_31_302
*2691 FILLER_31_305
*2692 FILLER_31_308
*2693 FILLER_31_311
*2694 FILLER_31_314
*2695 FILLER_31_317
*2696 FILLER_31_32
*2697 FILLER_31_320
*2698 FILLER_31_323
*2699 FILLER_31_326
*2700 FILLER_31_329
*2701 FILLER_31_332
*2702 FILLER_31_35
*2703 FILLER_31_38
*2704 FILLER_31_41
*2705 FILLER_31_44
*2706 FILLER_31_47
*2707 FILLER_31_50
*2708 FILLER_31_53
*2709 FILLER_31_57
*2710 FILLER_31_6
*2711 FILLER_31_79
*2712 FILLER_31_82
*2713 FILLER_31_85
*2714 FILLER_31_88
*2715 FILLER_31_9
*2716 FILLER_31_91
*2717 FILLER_31_94
*2718 FILLER_31_97
*2719 FILLER_32_106
*2720 FILLER_32_109
*2721 FILLER_32_112
*2722 FILLER_32_115
*2723 FILLER_32_118
*2724 FILLER_32_12
*2725 FILLER_32_121
*2726 FILLER_32_124
*2727 FILLER_32_137
*2728 FILLER_32_141
*2729 FILLER_32_144
*2730 FILLER_32_147
*2731 FILLER_32_15
*2732 FILLER_32_150
*2733 FILLER_32_153
*2734 FILLER_32_156
*2735 FILLER_32_159
*2736 FILLER_32_162
*2737 FILLER_32_179
*2738 FILLER_32_18
*2739 FILLER_32_182
*2740 FILLER_32_185
*2741 FILLER_32_188
*2742 FILLER_32_192
*2743 FILLER_32_195
*2744 FILLER_32_197
*2745 FILLER_32_200
*2746 FILLER_32_203
*2747 FILLER_32_206
*2748 FILLER_32_209
*2749 FILLER_32_21
*2750 FILLER_32_212
*2751 FILLER_32_215
*2752 FILLER_32_218
*2753 FILLER_32_221
*2754 FILLER_32_224
*2755 FILLER_32_227
*2756 FILLER_32_230
*2757 FILLER_32_233
*2758 FILLER_32_236
*2759 FILLER_32_239
*2760 FILLER_32_24
*2761 FILLER_32_242
*2762 FILLER_32_245
*2763 FILLER_32_248
*2764 FILLER_32_251
*2765 FILLER_32_27
*2766 FILLER_32_274
*2767 FILLER_32_277
*2768 FILLER_32_280
*2769 FILLER_32_29
*2770 FILLER_32_292
*2771 FILLER_32_295
*2772 FILLER_32_298
*2773 FILLER_32_3
*2774 FILLER_32_301
*2775 FILLER_32_304
*2776 FILLER_32_307
*2777 FILLER_32_309
*2778 FILLER_32_312
*2779 FILLER_32_315
*2780 FILLER_32_318
*2781 FILLER_32_32
*2782 FILLER_32_321
*2783 FILLER_32_324
*2784 FILLER_32_327
*2785 FILLER_32_330
*2786 FILLER_32_333
*2787 FILLER_32_35
*2788 FILLER_32_38
*2789 FILLER_32_41
*2790 FILLER_32_44
*2791 FILLER_32_47
*2792 FILLER_32_50
*2793 FILLER_32_53
*2794 FILLER_32_6
*2795 FILLER_32_65
*2796 FILLER_32_68
*2797 FILLER_32_71
*2798 FILLER_32_74
*2799 FILLER_32_77
*2800 FILLER_32_80
*2801 FILLER_32_83
*2802 FILLER_32_85
*2803 FILLER_32_88
*2804 FILLER_32_9
*2805 FILLER_32_91
*2806 FILLER_32_94
*2807 FILLER_33_107
*2808 FILLER_33_110
*2809 FILLER_33_113
*2810 FILLER_33_116
*2811 FILLER_33_119
*2812 FILLER_33_12
*2813 FILLER_33_122
*2814 FILLER_33_125
*2815 FILLER_33_128
*2816 FILLER_33_136
*2817 FILLER_33_139
*2818 FILLER_33_142
*2819 FILLER_33_145
*2820 FILLER_33_148
*2821 FILLER_33_15
*2822 FILLER_33_151
*2823 FILLER_33_154
*2824 FILLER_33_157
*2825 FILLER_33_160
*2826 FILLER_33_163
*2827 FILLER_33_166
*2828 FILLER_33_169
*2829 FILLER_33_172
*2830 FILLER_33_175
*2831 FILLER_33_178
*2832 FILLER_33_181
*2833 FILLER_33_184
*2834 FILLER_33_188
*2835 FILLER_33_191
*2836 FILLER_33_194
*2837 FILLER_33_197
*2838 FILLER_33_200
*2839 FILLER_33_203
*2840 FILLER_33_206
*2841 FILLER_33_209
*2842 FILLER_33_212
*2843 FILLER_33_215
*2844 FILLER_33_218
*2845 FILLER_33_221
*2846 FILLER_33_225
*2847 FILLER_33_228
*2848 FILLER_33_23
*2849 FILLER_33_231
*2850 FILLER_33_234
*2851 FILLER_33_237
*2852 FILLER_33_240
*2853 FILLER_33_243
*2854 FILLER_33_246
*2855 FILLER_33_249
*2856 FILLER_33_252
*2857 FILLER_33_255
*2858 FILLER_33_258
*2859 FILLER_33_261
*2860 FILLER_33_264
*2861 FILLER_33_267
*2862 FILLER_33_270
*2863 FILLER_33_273
*2864 FILLER_33_276
*2865 FILLER_33_279
*2866 FILLER_33_281
*2867 FILLER_33_284
*2868 FILLER_33_287
*2869 FILLER_33_290
*2870 FILLER_33_3
*2871 FILLER_33_320
*2872 FILLER_33_323
*2873 FILLER_33_326
*2874 FILLER_33_329
*2875 FILLER_33_332
*2876 FILLER_33_34
*2877 FILLER_33_37
*2878 FILLER_33_40
*2879 FILLER_33_43
*2880 FILLER_33_46
*2881 FILLER_33_49
*2882 FILLER_33_52
*2883 FILLER_33_55
*2884 FILLER_33_57
*2885 FILLER_33_6
*2886 FILLER_33_60
*2887 FILLER_33_63
*2888 FILLER_33_66
*2889 FILLER_33_69
*2890 FILLER_33_72
*2891 FILLER_33_75
*2892 FILLER_33_78
*2893 FILLER_33_81
*2894 FILLER_33_84
*2895 FILLER_33_87
*2896 FILLER_33_9
*2897 FILLER_33_90
*2898 FILLER_33_93
*2899 FILLER_33_96
*2900 FILLER_33_99
*2901 FILLER_34_100
*2902 FILLER_34_103
*2903 FILLER_34_106
*2904 FILLER_34_109
*2905 FILLER_34_112
*2906 FILLER_34_115
*2907 FILLER_34_118
*2908 FILLER_34_12
*2909 FILLER_34_121
*2910 FILLER_34_124
*2911 FILLER_34_127
*2912 FILLER_34_130
*2913 FILLER_34_133
*2914 FILLER_34_136
*2915 FILLER_34_139
*2916 FILLER_34_141
*2917 FILLER_34_144
*2918 FILLER_34_147
*2919 FILLER_34_15
*2920 FILLER_34_150
*2921 FILLER_34_153
*2922 FILLER_34_156
*2923 FILLER_34_159
*2924 FILLER_34_162
*2925 FILLER_34_165
*2926 FILLER_34_168
*2927 FILLER_34_171
*2928 FILLER_34_174
*2929 FILLER_34_177
*2930 FILLER_34_18
*2931 FILLER_34_187
*2932 FILLER_34_190
*2933 FILLER_34_193
*2934 FILLER_34_197
*2935 FILLER_34_200
*2936 FILLER_34_203
*2937 FILLER_34_206
*2938 FILLER_34_209
*2939 FILLER_34_21
*2940 FILLER_34_219
*2941 FILLER_34_222
*2942 FILLER_34_225
*2943 FILLER_34_228
*2944 FILLER_34_231
*2945 FILLER_34_234
*2946 FILLER_34_237
*2947 FILLER_34_24
*2948 FILLER_34_240
*2949 FILLER_34_243
*2950 FILLER_34_246
*2951 FILLER_34_249
*2952 FILLER_34_253
*2953 FILLER_34_256
*2954 FILLER_34_259
*2955 FILLER_34_262
*2956 FILLER_34_265
*2957 FILLER_34_268
*2958 FILLER_34_27
*2959 FILLER_34_271
*2960 FILLER_34_274
*2961 FILLER_34_277
*2962 FILLER_34_280
*2963 FILLER_34_283
*2964 FILLER_34_286
*2965 FILLER_34_289
*2966 FILLER_34_29
*2967 FILLER_34_292
*2968 FILLER_34_295
*2969 FILLER_34_3
*2970 FILLER_34_302
*2971 FILLER_34_306
*2972 FILLER_34_32
*2973 FILLER_34_329
*2974 FILLER_34_332
*2975 FILLER_34_35
*2976 FILLER_34_38
*2977 FILLER_34_41
*2978 FILLER_34_44
*2979 FILLER_34_47
*2980 FILLER_34_50
*2981 FILLER_34_53
*2982 FILLER_34_56
*2983 FILLER_34_59
*2984 FILLER_34_6
*2985 FILLER_34_63
*2986 FILLER_34_70
*2987 FILLER_34_73
*2988 FILLER_34_76
*2989 FILLER_34_79
*2990 FILLER_34_82
*2991 FILLER_34_85
*2992 FILLER_34_88
*2993 FILLER_34_9
*2994 FILLER_34_91
*2995 FILLER_34_94
*2996 FILLER_34_97
*2997 FILLER_35_109
*2998 FILLER_35_113
*2999 FILLER_35_116
*3000 FILLER_35_119
*3001 FILLER_35_12
*3002 FILLER_35_122
*3003 FILLER_35_125
*3004 FILLER_35_128
*3005 FILLER_35_131
*3006 FILLER_35_134
*3007 FILLER_35_137
*3008 FILLER_35_140
*3009 FILLER_35_143
*3010 FILLER_35_146
*3011 FILLER_35_149
*3012 FILLER_35_15
*3013 FILLER_35_152
*3014 FILLER_35_155
*3015 FILLER_35_158
*3016 FILLER_35_166
*3017 FILLER_35_169
*3018 FILLER_35_172
*3019 FILLER_35_175
*3020 FILLER_35_178
*3021 FILLER_35_18
*3022 FILLER_35_183
*3023 FILLER_35_186
*3024 FILLER_35_189
*3025 FILLER_35_192
*3026 FILLER_35_195
*3027 FILLER_35_198
*3028 FILLER_35_201
*3029 FILLER_35_204
*3030 FILLER_35_207
*3031 FILLER_35_21
*3032 FILLER_35_210
*3033 FILLER_35_213
*3034 FILLER_35_216
*3035 FILLER_35_219
*3036 FILLER_35_222
*3037 FILLER_35_225
*3038 FILLER_35_228
*3039 FILLER_35_231
*3040 FILLER_35_24
*3041 FILLER_35_262
*3042 FILLER_35_265
*3043 FILLER_35_268
*3044 FILLER_35_27
*3045 FILLER_35_271
*3046 FILLER_35_274
*3047 FILLER_35_277
*3048 FILLER_35_281
*3049 FILLER_35_284
*3050 FILLER_35_287
*3051 FILLER_35_290
*3052 FILLER_35_293
*3053 FILLER_35_296
*3054 FILLER_35_299
*3055 FILLER_35_3
*3056 FILLER_35_30
*3057 FILLER_35_302
*3058 FILLER_35_305
*3059 FILLER_35_308
*3060 FILLER_35_311
*3061 FILLER_35_314
*3062 FILLER_35_326
*3063 FILLER_35_329
*3064 FILLER_35_33
*3065 FILLER_35_332
*3066 FILLER_35_36
*3067 FILLER_35_39
*3068 FILLER_35_42
*3069 FILLER_35_45
*3070 FILLER_35_48
*3071 FILLER_35_51
*3072 FILLER_35_54
*3073 FILLER_35_57
*3074 FILLER_35_6
*3075 FILLER_35_60
*3076 FILLER_35_63
*3077 FILLER_35_66
*3078 FILLER_35_69
*3079 FILLER_35_75
*3080 FILLER_35_78
*3081 FILLER_35_81
*3082 FILLER_35_84
*3083 FILLER_35_87
*3084 FILLER_35_9
*3085 FILLER_35_90
*3086 FILLER_35_93
*3087 FILLER_35_96
*3088 FILLER_35_99
*3089 FILLER_36_100
*3090 FILLER_36_103
*3091 FILLER_36_106
*3092 FILLER_36_109
*3093 FILLER_36_112
*3094 FILLER_36_115
*3095 FILLER_36_118
*3096 FILLER_36_12
*3097 FILLER_36_121
*3098 FILLER_36_124
*3099 FILLER_36_127
*3100 FILLER_36_130
*3101 FILLER_36_139
*3102 FILLER_36_141
*3103 FILLER_36_144
*3104 FILLER_36_147
*3105 FILLER_36_15
*3106 FILLER_36_150
*3107 FILLER_36_153
*3108 FILLER_36_156
*3109 FILLER_36_159
*3110 FILLER_36_162
*3111 FILLER_36_165
*3112 FILLER_36_168
*3113 FILLER_36_171
*3114 FILLER_36_174
*3115 FILLER_36_177
*3116 FILLER_36_18
*3117 FILLER_36_180
*3118 FILLER_36_183
*3119 FILLER_36_193
*3120 FILLER_36_197
*3121 FILLER_36_200
*3122 FILLER_36_203
*3123 FILLER_36_206
*3124 FILLER_36_209
*3125 FILLER_36_21
*3126 FILLER_36_212
*3127 FILLER_36_215
*3128 FILLER_36_218
*3129 FILLER_36_221
*3130 FILLER_36_224
*3131 FILLER_36_227
*3132 FILLER_36_230
*3133 FILLER_36_233
*3134 FILLER_36_236
*3135 FILLER_36_239
*3136 FILLER_36_24
*3137 FILLER_36_242
*3138 FILLER_36_245
*3139 FILLER_36_248
*3140 FILLER_36_251
*3141 FILLER_36_253
*3142 FILLER_36_256
*3143 FILLER_36_259
*3144 FILLER_36_262
*3145 FILLER_36_27
*3146 FILLER_36_288
*3147 FILLER_36_29
*3148 FILLER_36_291
*3149 FILLER_36_294
*3150 FILLER_36_3
*3151 FILLER_36_303
*3152 FILLER_36_306
*3153 FILLER_36_309
*3154 FILLER_36_312
*3155 FILLER_36_315
*3156 FILLER_36_319
*3157 FILLER_36_32
*3158 FILLER_36_322
*3159 FILLER_36_325
*3160 FILLER_36_328
*3161 FILLER_36_331
*3162 FILLER_36_334
*3163 FILLER_36_35
*3164 FILLER_36_38
*3165 FILLER_36_41
*3166 FILLER_36_44
*3167 FILLER_36_47
*3168 FILLER_36_50
*3169 FILLER_36_53
*3170 FILLER_36_56
*3171 FILLER_36_59
*3172 FILLER_36_6
*3173 FILLER_36_62
*3174 FILLER_36_65
*3175 FILLER_36_68
*3176 FILLER_36_77
*3177 FILLER_36_80
*3178 FILLER_36_83
*3179 FILLER_36_85
*3180 FILLER_36_88
*3181 FILLER_36_9
*3182 FILLER_36_91
*3183 FILLER_36_94
*3184 FILLER_36_97
*3185 FILLER_37_102
*3186 FILLER_37_105
*3187 FILLER_37_108
*3188 FILLER_37_111
*3189 FILLER_37_113
*3190 FILLER_37_116
*3191 FILLER_37_119
*3192 FILLER_37_12
*3193 FILLER_37_122
*3194 FILLER_37_125
*3195 FILLER_37_128
*3196 FILLER_37_138
*3197 FILLER_37_141
*3198 FILLER_37_144
*3199 FILLER_37_147
*3200 FILLER_37_15
*3201 FILLER_37_150
*3202 FILLER_37_153
*3203 FILLER_37_156
*3204 FILLER_37_159
*3205 FILLER_37_162
*3206 FILLER_37_165
*3207 FILLER_37_169
*3208 FILLER_37_172
*3209 FILLER_37_175
*3210 FILLER_37_178
*3211 FILLER_37_18
*3212 FILLER_37_181
*3213 FILLER_37_184
*3214 FILLER_37_187
*3215 FILLER_37_190
*3216 FILLER_37_193
*3217 FILLER_37_196
*3218 FILLER_37_199
*3219 FILLER_37_202
*3220 FILLER_37_205
*3221 FILLER_37_208
*3222 FILLER_37_21
*3223 FILLER_37_211
*3224 FILLER_37_214
*3225 FILLER_37_217
*3226 FILLER_37_220
*3227 FILLER_37_223
*3228 FILLER_37_225
*3229 FILLER_37_228
*3230 FILLER_37_231
*3231 FILLER_37_234
*3232 FILLER_37_237
*3233 FILLER_37_24
*3234 FILLER_37_240
*3235 FILLER_37_243
*3236 FILLER_37_246
*3237 FILLER_37_249
*3238 FILLER_37_252
*3239 FILLER_37_255
*3240 FILLER_37_258
*3241 FILLER_37_261
*3242 FILLER_37_264
*3243 FILLER_37_27
*3244 FILLER_37_276
*3245 FILLER_37_279
*3246 FILLER_37_281
*3247 FILLER_37_284
*3248 FILLER_37_287
*3249 FILLER_37_290
*3250 FILLER_37_293
*3251 FILLER_37_296
*3252 FILLER_37_299
*3253 FILLER_37_3
*3254 FILLER_37_30
*3255 FILLER_37_302
*3256 FILLER_37_328
*3257 FILLER_37_33
*3258 FILLER_37_331
*3259 FILLER_37_334
*3260 FILLER_37_36
*3261 FILLER_37_39
*3262 FILLER_37_42
*3263 FILLER_37_45
*3264 FILLER_37_48
*3265 FILLER_37_51
*3266 FILLER_37_54
*3267 FILLER_37_57
*3268 FILLER_37_6
*3269 FILLER_37_60
*3270 FILLER_37_63
*3271 FILLER_37_66
*3272 FILLER_37_69
*3273 FILLER_37_72
*3274 FILLER_37_75
*3275 FILLER_37_78
*3276 FILLER_37_81
*3277 FILLER_37_84
*3278 FILLER_37_87
*3279 FILLER_37_9
*3280 FILLER_37_90
*3281 FILLER_37_93
*3282 FILLER_37_96
*3283 FILLER_37_99
*3284 FILLER_38_100
*3285 FILLER_38_106
*3286 FILLER_38_113
*3287 FILLER_38_118
*3288 FILLER_38_12
*3289 FILLER_38_124
*3290 FILLER_38_130
*3291 FILLER_38_136
*3292 FILLER_38_141
*3293 FILLER_38_144
*3294 FILLER_38_148
*3295 FILLER_38_15
*3296 FILLER_38_154
*3297 FILLER_38_160
*3298 FILLER_38_166
*3299 FILLER_38_172
*3300 FILLER_38_178
*3301 FILLER_38_18
*3302 FILLER_38_184
*3303 FILLER_38_190
*3304 FILLER_38_197
*3305 FILLER_38_202
*3306 FILLER_38_205
*3307 FILLER_38_208
*3308 FILLER_38_21
*3309 FILLER_38_211
*3310 FILLER_38_214
*3311 FILLER_38_217
*3312 FILLER_38_220
*3313 FILLER_38_223
*3314 FILLER_38_225
*3315 FILLER_38_228
*3316 FILLER_38_231
*3317 FILLER_38_234
*3318 FILLER_38_237
*3319 FILLER_38_24
*3320 FILLER_38_240
*3321 FILLER_38_243
*3322 FILLER_38_246
*3323 FILLER_38_249
*3324 FILLER_38_256
*3325 FILLER_38_262
*3326 FILLER_38_268
*3327 FILLER_38_27
*3328 FILLER_38_274
*3329 FILLER_38_281
*3330 FILLER_38_286
*3331 FILLER_38_29
*3332 FILLER_38_292
*3333 FILLER_38_298
*3334 FILLER_38_3
*3335 FILLER_38_301
*3336 FILLER_38_304
*3337 FILLER_38_307
*3338 FILLER_38_309
*3339 FILLER_38_32
*3340 FILLER_38_320
*3341 FILLER_38_323
*3342 FILLER_38_326
*3343 FILLER_38_329
*3344 FILLER_38_332
*3345 FILLER_38_35
*3346 FILLER_38_38
*3347 FILLER_38_41
*3348 FILLER_38_44
*3349 FILLER_38_47
*3350 FILLER_38_50
*3351 FILLER_38_53
*3352 FILLER_38_57
*3353 FILLER_38_6
*3354 FILLER_38_60
*3355 FILLER_38_64
*3356 FILLER_38_70
*3357 FILLER_38_76
*3358 FILLER_38_82
*3359 FILLER_38_88
*3360 FILLER_38_9
*3361 FILLER_38_94
*3362 FILLER_3_102
*3363 FILLER_3_105
*3364 FILLER_3_108
*3365 FILLER_3_111
*3366 FILLER_3_113
*3367 FILLER_3_116
*3368 FILLER_3_119
*3369 FILLER_3_12
*3370 FILLER_3_122
*3371 FILLER_3_125
*3372 FILLER_3_128
*3373 FILLER_3_131
*3374 FILLER_3_134
*3375 FILLER_3_137
*3376 FILLER_3_140
*3377 FILLER_3_143
*3378 FILLER_3_146
*3379 FILLER_3_149
*3380 FILLER_3_15
*3381 FILLER_3_152
*3382 FILLER_3_155
*3383 FILLER_3_158
*3384 FILLER_3_161
*3385 FILLER_3_164
*3386 FILLER_3_167
*3387 FILLER_3_169
*3388 FILLER_3_172
*3389 FILLER_3_175
*3390 FILLER_3_178
*3391 FILLER_3_18
*3392 FILLER_3_181
*3393 FILLER_3_184
*3394 FILLER_3_187
*3395 FILLER_3_190
*3396 FILLER_3_193
*3397 FILLER_3_196
*3398 FILLER_3_199
*3399 FILLER_3_202
*3400 FILLER_3_205
*3401 FILLER_3_208
*3402 FILLER_3_21
*3403 FILLER_3_211
*3404 FILLER_3_214
*3405 FILLER_3_217
*3406 FILLER_3_220
*3407 FILLER_3_223
*3408 FILLER_3_225
*3409 FILLER_3_228
*3410 FILLER_3_231
*3411 FILLER_3_234
*3412 FILLER_3_237
*3413 FILLER_3_24
*3414 FILLER_3_240
*3415 FILLER_3_243
*3416 FILLER_3_246
*3417 FILLER_3_249
*3418 FILLER_3_252
*3419 FILLER_3_255
*3420 FILLER_3_258
*3421 FILLER_3_261
*3422 FILLER_3_264
*3423 FILLER_3_267
*3424 FILLER_3_27
*3425 FILLER_3_270
*3426 FILLER_3_273
*3427 FILLER_3_276
*3428 FILLER_3_279
*3429 FILLER_3_281
*3430 FILLER_3_284
*3431 FILLER_3_287
*3432 FILLER_3_290
*3433 FILLER_3_293
*3434 FILLER_3_296
*3435 FILLER_3_299
*3436 FILLER_3_3
*3437 FILLER_3_30
*3438 FILLER_3_302
*3439 FILLER_3_305
*3440 FILLER_3_308
*3441 FILLER_3_311
*3442 FILLER_3_314
*3443 FILLER_3_317
*3444 FILLER_3_320
*3445 FILLER_3_323
*3446 FILLER_3_326
*3447 FILLER_3_329
*3448 FILLER_3_33
*3449 FILLER_3_332
*3450 FILLER_3_36
*3451 FILLER_3_39
*3452 FILLER_3_42
*3453 FILLER_3_45
*3454 FILLER_3_48
*3455 FILLER_3_51
*3456 FILLER_3_54
*3457 FILLER_3_57
*3458 FILLER_3_6
*3459 FILLER_3_60
*3460 FILLER_3_63
*3461 FILLER_3_66
*3462 FILLER_3_69
*3463 FILLER_3_72
*3464 FILLER_3_75
*3465 FILLER_3_78
*3466 FILLER_3_81
*3467 FILLER_3_84
*3468 FILLER_3_87
*3469 FILLER_3_9
*3470 FILLER_3_90
*3471 FILLER_3_93
*3472 FILLER_3_96
*3473 FILLER_3_99
*3474 FILLER_4_100
*3475 FILLER_4_103
*3476 FILLER_4_106
*3477 FILLER_4_109
*3478 FILLER_4_112
*3479 FILLER_4_115
*3480 FILLER_4_118
*3481 FILLER_4_12
*3482 FILLER_4_121
*3483 FILLER_4_124
*3484 FILLER_4_127
*3485 FILLER_4_130
*3486 FILLER_4_133
*3487 FILLER_4_136
*3488 FILLER_4_139
*3489 FILLER_4_141
*3490 FILLER_4_144
*3491 FILLER_4_147
*3492 FILLER_4_15
*3493 FILLER_4_150
*3494 FILLER_4_153
*3495 FILLER_4_156
*3496 FILLER_4_159
*3497 FILLER_4_162
*3498 FILLER_4_165
*3499 FILLER_4_168
*3500 FILLER_4_171
*3501 FILLER_4_174
*3502 FILLER_4_177
*3503 FILLER_4_18
*3504 FILLER_4_180
*3505 FILLER_4_183
*3506 FILLER_4_186
*3507 FILLER_4_189
*3508 FILLER_4_192
*3509 FILLER_4_195
*3510 FILLER_4_197
*3511 FILLER_4_200
*3512 FILLER_4_203
*3513 FILLER_4_206
*3514 FILLER_4_209
*3515 FILLER_4_21
*3516 FILLER_4_212
*3517 FILLER_4_215
*3518 FILLER_4_218
*3519 FILLER_4_221
*3520 FILLER_4_224
*3521 FILLER_4_227
*3522 FILLER_4_230
*3523 FILLER_4_233
*3524 FILLER_4_236
*3525 FILLER_4_239
*3526 FILLER_4_24
*3527 FILLER_4_242
*3528 FILLER_4_245
*3529 FILLER_4_248
*3530 FILLER_4_251
*3531 FILLER_4_253
*3532 FILLER_4_256
*3533 FILLER_4_259
*3534 FILLER_4_262
*3535 FILLER_4_265
*3536 FILLER_4_268
*3537 FILLER_4_27
*3538 FILLER_4_271
*3539 FILLER_4_274
*3540 FILLER_4_277
*3541 FILLER_4_280
*3542 FILLER_4_283
*3543 FILLER_4_286
*3544 FILLER_4_289
*3545 FILLER_4_29
*3546 FILLER_4_292
*3547 FILLER_4_295
*3548 FILLER_4_298
*3549 FILLER_4_3
*3550 FILLER_4_301
*3551 FILLER_4_304
*3552 FILLER_4_307
*3553 FILLER_4_309
*3554 FILLER_4_312
*3555 FILLER_4_315
*3556 FILLER_4_318
*3557 FILLER_4_32
*3558 FILLER_4_321
*3559 FILLER_4_324
*3560 FILLER_4_327
*3561 FILLER_4_330
*3562 FILLER_4_333
*3563 FILLER_4_35
*3564 FILLER_4_38
*3565 FILLER_4_41
*3566 FILLER_4_44
*3567 FILLER_4_47
*3568 FILLER_4_50
*3569 FILLER_4_53
*3570 FILLER_4_56
*3571 FILLER_4_59
*3572 FILLER_4_6
*3573 FILLER_4_62
*3574 FILLER_4_65
*3575 FILLER_4_68
*3576 FILLER_4_71
*3577 FILLER_4_74
*3578 FILLER_4_77
*3579 FILLER_4_80
*3580 FILLER_4_83
*3581 FILLER_4_85
*3582 FILLER_4_88
*3583 FILLER_4_9
*3584 FILLER_4_91
*3585 FILLER_4_94
*3586 FILLER_4_97
*3587 FILLER_5_102
*3588 FILLER_5_105
*3589 FILLER_5_108
*3590 FILLER_5_111
*3591 FILLER_5_113
*3592 FILLER_5_116
*3593 FILLER_5_119
*3594 FILLER_5_12
*3595 FILLER_5_122
*3596 FILLER_5_125
*3597 FILLER_5_128
*3598 FILLER_5_131
*3599 FILLER_5_134
*3600 FILLER_5_137
*3601 FILLER_5_140
*3602 FILLER_5_143
*3603 FILLER_5_146
*3604 FILLER_5_149
*3605 FILLER_5_15
*3606 FILLER_5_152
*3607 FILLER_5_155
*3608 FILLER_5_158
*3609 FILLER_5_161
*3610 FILLER_5_164
*3611 FILLER_5_167
*3612 FILLER_5_169
*3613 FILLER_5_172
*3614 FILLER_5_175
*3615 FILLER_5_178
*3616 FILLER_5_18
*3617 FILLER_5_181
*3618 FILLER_5_184
*3619 FILLER_5_187
*3620 FILLER_5_190
*3621 FILLER_5_193
*3622 FILLER_5_196
*3623 FILLER_5_199
*3624 FILLER_5_202
*3625 FILLER_5_205
*3626 FILLER_5_208
*3627 FILLER_5_21
*3628 FILLER_5_211
*3629 FILLER_5_214
*3630 FILLER_5_217
*3631 FILLER_5_220
*3632 FILLER_5_223
*3633 FILLER_5_225
*3634 FILLER_5_228
*3635 FILLER_5_231
*3636 FILLER_5_234
*3637 FILLER_5_237
*3638 FILLER_5_24
*3639 FILLER_5_240
*3640 FILLER_5_243
*3641 FILLER_5_246
*3642 FILLER_5_249
*3643 FILLER_5_252
*3644 FILLER_5_255
*3645 FILLER_5_258
*3646 FILLER_5_261
*3647 FILLER_5_264
*3648 FILLER_5_267
*3649 FILLER_5_27
*3650 FILLER_5_270
*3651 FILLER_5_273
*3652 FILLER_5_276
*3653 FILLER_5_279
*3654 FILLER_5_281
*3655 FILLER_5_284
*3656 FILLER_5_287
*3657 FILLER_5_290
*3658 FILLER_5_293
*3659 FILLER_5_296
*3660 FILLER_5_299
*3661 FILLER_5_3
*3662 FILLER_5_30
*3663 FILLER_5_302
*3664 FILLER_5_305
*3665 FILLER_5_308
*3666 FILLER_5_311
*3667 FILLER_5_314
*3668 FILLER_5_317
*3669 FILLER_5_320
*3670 FILLER_5_323
*3671 FILLER_5_326
*3672 FILLER_5_329
*3673 FILLER_5_33
*3674 FILLER_5_332
*3675 FILLER_5_36
*3676 FILLER_5_39
*3677 FILLER_5_42
*3678 FILLER_5_45
*3679 FILLER_5_48
*3680 FILLER_5_51
*3681 FILLER_5_54
*3682 FILLER_5_57
*3683 FILLER_5_6
*3684 FILLER_5_60
*3685 FILLER_5_63
*3686 FILLER_5_66
*3687 FILLER_5_69
*3688 FILLER_5_72
*3689 FILLER_5_75
*3690 FILLER_5_78
*3691 FILLER_5_81
*3692 FILLER_5_84
*3693 FILLER_5_87
*3694 FILLER_5_9
*3695 FILLER_5_90
*3696 FILLER_5_93
*3697 FILLER_5_96
*3698 FILLER_5_99
*3699 FILLER_6_100
*3700 FILLER_6_103
*3701 FILLER_6_106
*3702 FILLER_6_109
*3703 FILLER_6_112
*3704 FILLER_6_115
*3705 FILLER_6_118
*3706 FILLER_6_12
*3707 FILLER_6_121
*3708 FILLER_6_124
*3709 FILLER_6_127
*3710 FILLER_6_130
*3711 FILLER_6_133
*3712 FILLER_6_136
*3713 FILLER_6_139
*3714 FILLER_6_141
*3715 FILLER_6_144
*3716 FILLER_6_147
*3717 FILLER_6_15
*3718 FILLER_6_150
*3719 FILLER_6_153
*3720 FILLER_6_156
*3721 FILLER_6_159
*3722 FILLER_6_162
*3723 FILLER_6_165
*3724 FILLER_6_168
*3725 FILLER_6_171
*3726 FILLER_6_174
*3727 FILLER_6_177
*3728 FILLER_6_18
*3729 FILLER_6_180
*3730 FILLER_6_183
*3731 FILLER_6_186
*3732 FILLER_6_189
*3733 FILLER_6_192
*3734 FILLER_6_195
*3735 FILLER_6_197
*3736 FILLER_6_200
*3737 FILLER_6_203
*3738 FILLER_6_206
*3739 FILLER_6_209
*3740 FILLER_6_21
*3741 FILLER_6_212
*3742 FILLER_6_215
*3743 FILLER_6_218
*3744 FILLER_6_221
*3745 FILLER_6_224
*3746 FILLER_6_227
*3747 FILLER_6_230
*3748 FILLER_6_233
*3749 FILLER_6_236
*3750 FILLER_6_239
*3751 FILLER_6_24
*3752 FILLER_6_242
*3753 FILLER_6_245
*3754 FILLER_6_248
*3755 FILLER_6_251
*3756 FILLER_6_253
*3757 FILLER_6_256
*3758 FILLER_6_259
*3759 FILLER_6_262
*3760 FILLER_6_265
*3761 FILLER_6_268
*3762 FILLER_6_27
*3763 FILLER_6_271
*3764 FILLER_6_274
*3765 FILLER_6_277
*3766 FILLER_6_280
*3767 FILLER_6_283
*3768 FILLER_6_286
*3769 FILLER_6_289
*3770 FILLER_6_29
*3771 FILLER_6_292
*3772 FILLER_6_295
*3773 FILLER_6_298
*3774 FILLER_6_3
*3775 FILLER_6_301
*3776 FILLER_6_304
*3777 FILLER_6_307
*3778 FILLER_6_309
*3779 FILLER_6_312
*3780 FILLER_6_315
*3781 FILLER_6_318
*3782 FILLER_6_32
*3783 FILLER_6_321
*3784 FILLER_6_324
*3785 FILLER_6_327
*3786 FILLER_6_330
*3787 FILLER_6_333
*3788 FILLER_6_35
*3789 FILLER_6_38
*3790 FILLER_6_41
*3791 FILLER_6_44
*3792 FILLER_6_47
*3793 FILLER_6_50
*3794 FILLER_6_53
*3795 FILLER_6_56
*3796 FILLER_6_59
*3797 FILLER_6_6
*3798 FILLER_6_62
*3799 FILLER_6_65
*3800 FILLER_6_68
*3801 FILLER_6_71
*3802 FILLER_6_74
*3803 FILLER_6_77
*3804 FILLER_6_80
*3805 FILLER_6_83
*3806 FILLER_6_85
*3807 FILLER_6_88
*3808 FILLER_6_9
*3809 FILLER_6_91
*3810 FILLER_6_94
*3811 FILLER_6_97
*3812 FILLER_7_102
*3813 FILLER_7_105
*3814 FILLER_7_108
*3815 FILLER_7_111
*3816 FILLER_7_113
*3817 FILLER_7_116
*3818 FILLER_7_119
*3819 FILLER_7_12
*3820 FILLER_7_122
*3821 FILLER_7_125
*3822 FILLER_7_128
*3823 FILLER_7_131
*3824 FILLER_7_134
*3825 FILLER_7_137
*3826 FILLER_7_140
*3827 FILLER_7_143
*3828 FILLER_7_146
*3829 FILLER_7_149
*3830 FILLER_7_15
*3831 FILLER_7_152
*3832 FILLER_7_155
*3833 FILLER_7_158
*3834 FILLER_7_161
*3835 FILLER_7_164
*3836 FILLER_7_167
*3837 FILLER_7_169
*3838 FILLER_7_172
*3839 FILLER_7_175
*3840 FILLER_7_178
*3841 FILLER_7_18
*3842 FILLER_7_181
*3843 FILLER_7_184
*3844 FILLER_7_187
*3845 FILLER_7_190
*3846 FILLER_7_193
*3847 FILLER_7_196
*3848 FILLER_7_199
*3849 FILLER_7_202
*3850 FILLER_7_205
*3851 FILLER_7_208
*3852 FILLER_7_21
*3853 FILLER_7_211
*3854 FILLER_7_214
*3855 FILLER_7_217
*3856 FILLER_7_220
*3857 FILLER_7_223
*3858 FILLER_7_225
*3859 FILLER_7_228
*3860 FILLER_7_231
*3861 FILLER_7_234
*3862 FILLER_7_237
*3863 FILLER_7_24
*3864 FILLER_7_240
*3865 FILLER_7_243
*3866 FILLER_7_246
*3867 FILLER_7_249
*3868 FILLER_7_252
*3869 FILLER_7_255
*3870 FILLER_7_258
*3871 FILLER_7_261
*3872 FILLER_7_264
*3873 FILLER_7_267
*3874 FILLER_7_27
*3875 FILLER_7_270
*3876 FILLER_7_273
*3877 FILLER_7_276
*3878 FILLER_7_279
*3879 FILLER_7_281
*3880 FILLER_7_284
*3881 FILLER_7_287
*3882 FILLER_7_290
*3883 FILLER_7_293
*3884 FILLER_7_296
*3885 FILLER_7_299
*3886 FILLER_7_3
*3887 FILLER_7_30
*3888 FILLER_7_302
*3889 FILLER_7_305
*3890 FILLER_7_308
*3891 FILLER_7_311
*3892 FILLER_7_314
*3893 FILLER_7_317
*3894 FILLER_7_320
*3895 FILLER_7_323
*3896 FILLER_7_326
*3897 FILLER_7_329
*3898 FILLER_7_33
*3899 FILLER_7_332
*3900 FILLER_7_36
*3901 FILLER_7_39
*3902 FILLER_7_42
*3903 FILLER_7_45
*3904 FILLER_7_48
*3905 FILLER_7_51
*3906 FILLER_7_54
*3907 FILLER_7_57
*3908 FILLER_7_6
*3909 FILLER_7_60
*3910 FILLER_7_63
*3911 FILLER_7_66
*3912 FILLER_7_69
*3913 FILLER_7_72
*3914 FILLER_7_75
*3915 FILLER_7_78
*3916 FILLER_7_81
*3917 FILLER_7_84
*3918 FILLER_7_87
*3919 FILLER_7_9
*3920 FILLER_7_90
*3921 FILLER_7_93
*3922 FILLER_7_96
*3923 FILLER_7_99
*3924 FILLER_8_100
*3925 FILLER_8_103
*3926 FILLER_8_106
*3927 FILLER_8_109
*3928 FILLER_8_112
*3929 FILLER_8_115
*3930 FILLER_8_118
*3931 FILLER_8_12
*3932 FILLER_8_121
*3933 FILLER_8_124
*3934 FILLER_8_127
*3935 FILLER_8_130
*3936 FILLER_8_133
*3937 FILLER_8_136
*3938 FILLER_8_139
*3939 FILLER_8_141
*3940 FILLER_8_144
*3941 FILLER_8_147
*3942 FILLER_8_15
*3943 FILLER_8_150
*3944 FILLER_8_153
*3945 FILLER_8_156
*3946 FILLER_8_159
*3947 FILLER_8_162
*3948 FILLER_8_165
*3949 FILLER_8_168
*3950 FILLER_8_171
*3951 FILLER_8_174
*3952 FILLER_8_177
*3953 FILLER_8_18
*3954 FILLER_8_180
*3955 FILLER_8_183
*3956 FILLER_8_186
*3957 FILLER_8_189
*3958 FILLER_8_192
*3959 FILLER_8_195
*3960 FILLER_8_197
*3961 FILLER_8_200
*3962 FILLER_8_203
*3963 FILLER_8_206
*3964 FILLER_8_209
*3965 FILLER_8_21
*3966 FILLER_8_212
*3967 FILLER_8_215
*3968 FILLER_8_218
*3969 FILLER_8_221
*3970 FILLER_8_224
*3971 FILLER_8_227
*3972 FILLER_8_230
*3973 FILLER_8_233
*3974 FILLER_8_236
*3975 FILLER_8_239
*3976 FILLER_8_24
*3977 FILLER_8_242
*3978 FILLER_8_245
*3979 FILLER_8_248
*3980 FILLER_8_251
*3981 FILLER_8_253
*3982 FILLER_8_256
*3983 FILLER_8_259
*3984 FILLER_8_262
*3985 FILLER_8_265
*3986 FILLER_8_268
*3987 FILLER_8_27
*3988 FILLER_8_271
*3989 FILLER_8_274
*3990 FILLER_8_277
*3991 FILLER_8_280
*3992 FILLER_8_283
*3993 FILLER_8_286
*3994 FILLER_8_289
*3995 FILLER_8_29
*3996 FILLER_8_292
*3997 FILLER_8_295
*3998 FILLER_8_298
*3999 FILLER_8_3
*4000 FILLER_8_301
*4001 FILLER_8_304
*4002 FILLER_8_307
*4003 FILLER_8_309
*4004 FILLER_8_312
*4005 FILLER_8_315
*4006 FILLER_8_318
*4007 FILLER_8_32
*4008 FILLER_8_321
*4009 FILLER_8_324
*4010 FILLER_8_327
*4011 FILLER_8_330
*4012 FILLER_8_333
*4013 FILLER_8_35
*4014 FILLER_8_38
*4015 FILLER_8_41
*4016 FILLER_8_44
*4017 FILLER_8_47
*4018 FILLER_8_50
*4019 FILLER_8_53
*4020 FILLER_8_56
*4021 FILLER_8_59
*4022 FILLER_8_6
*4023 FILLER_8_62
*4024 FILLER_8_65
*4025 FILLER_8_68
*4026 FILLER_8_71
*4027 FILLER_8_74
*4028 FILLER_8_77
*4029 FILLER_8_80
*4030 FILLER_8_83
*4031 FILLER_8_85
*4032 FILLER_8_88
*4033 FILLER_8_9
*4034 FILLER_8_91
*4035 FILLER_8_94
*4036 FILLER_8_97
*4037 FILLER_9_102
*4038 FILLER_9_105
*4039 FILLER_9_108
*4040 FILLER_9_111
*4041 FILLER_9_113
*4042 FILLER_9_116
*4043 FILLER_9_119
*4044 FILLER_9_12
*4045 FILLER_9_122
*4046 FILLER_9_125
*4047 FILLER_9_128
*4048 FILLER_9_131
*4049 FILLER_9_134
*4050 FILLER_9_137
*4051 FILLER_9_140
*4052 FILLER_9_143
*4053 FILLER_9_146
*4054 FILLER_9_149
*4055 FILLER_9_15
*4056 FILLER_9_152
*4057 FILLER_9_155
*4058 FILLER_9_158
*4059 FILLER_9_161
*4060 FILLER_9_164
*4061 FILLER_9_167
*4062 FILLER_9_169
*4063 FILLER_9_172
*4064 FILLER_9_175
*4065 FILLER_9_178
*4066 FILLER_9_18
*4067 FILLER_9_181
*4068 FILLER_9_184
*4069 FILLER_9_187
*4070 FILLER_9_190
*4071 FILLER_9_193
*4072 FILLER_9_196
*4073 FILLER_9_199
*4074 FILLER_9_202
*4075 FILLER_9_205
*4076 FILLER_9_208
*4077 FILLER_9_21
*4078 FILLER_9_211
*4079 FILLER_9_214
*4080 FILLER_9_217
*4081 FILLER_9_220
*4082 FILLER_9_223
*4083 FILLER_9_225
*4084 FILLER_9_228
*4085 FILLER_9_231
*4086 FILLER_9_234
*4087 FILLER_9_237
*4088 FILLER_9_24
*4089 FILLER_9_240
*4090 FILLER_9_243
*4091 FILLER_9_246
*4092 FILLER_9_249
*4093 FILLER_9_252
*4094 FILLER_9_255
*4095 FILLER_9_258
*4096 FILLER_9_261
*4097 FILLER_9_264
*4098 FILLER_9_267
*4099 FILLER_9_27
*4100 FILLER_9_270
*4101 FILLER_9_273
*4102 FILLER_9_276
*4103 FILLER_9_279
*4104 FILLER_9_281
*4105 FILLER_9_284
*4106 FILLER_9_287
*4107 FILLER_9_290
*4108 FILLER_9_293
*4109 FILLER_9_296
*4110 FILLER_9_299
*4111 FILLER_9_3
*4112 FILLER_9_30
*4113 FILLER_9_302
*4114 FILLER_9_305
*4115 FILLER_9_308
*4116 FILLER_9_311
*4117 FILLER_9_314
*4118 FILLER_9_317
*4119 FILLER_9_320
*4120 FILLER_9_323
*4121 FILLER_9_326
*4122 FILLER_9_329
*4123 FILLER_9_33
*4124 FILLER_9_332
*4125 FILLER_9_36
*4126 FILLER_9_39
*4127 FILLER_9_42
*4128 FILLER_9_45
*4129 FILLER_9_48
*4130 FILLER_9_51
*4131 FILLER_9_54
*4132 FILLER_9_57
*4133 FILLER_9_6
*4134 FILLER_9_60
*4135 FILLER_9_63
*4136 FILLER_9_66
*4137 FILLER_9_69
*4138 FILLER_9_72
*4139 FILLER_9_75
*4140 FILLER_9_78
*4141 FILLER_9_81
*4142 FILLER_9_84
*4143 FILLER_9_87
*4144 FILLER_9_9
*4145 FILLER_9_90
*4146 FILLER_9_93
*4147 FILLER_9_96
*4148 FILLER_9_99
*4149 PHY_EDGE_ROW_0_Left_39
*4150 PHY_EDGE_ROW_0_Right_0
*4151 PHY_EDGE_ROW_10_Left_49
*4152 PHY_EDGE_ROW_10_Right_10
*4153 PHY_EDGE_ROW_11_Left_50
*4154 PHY_EDGE_ROW_11_Right_11
*4155 PHY_EDGE_ROW_12_Left_51
*4156 PHY_EDGE_ROW_12_Right_12
*4157 PHY_EDGE_ROW_13_Left_52
*4158 PHY_EDGE_ROW_13_Right_13
*4159 PHY_EDGE_ROW_14_Left_53
*4160 PHY_EDGE_ROW_14_Right_14
*4161 PHY_EDGE_ROW_15_Left_54
*4162 PHY_EDGE_ROW_15_Right_15
*4163 PHY_EDGE_ROW_16_Left_55
*4164 PHY_EDGE_ROW_16_Right_16
*4165 PHY_EDGE_ROW_17_Left_56
*4166 PHY_EDGE_ROW_17_Right_17
*4167 PHY_EDGE_ROW_18_Left_57
*4168 PHY_EDGE_ROW_18_Right_18
*4169 PHY_EDGE_ROW_19_Left_58
*4170 PHY_EDGE_ROW_19_Right_19
*4171 PHY_EDGE_ROW_1_Left_40
*4172 PHY_EDGE_ROW_1_Right_1
*4173 PHY_EDGE_ROW_20_Left_59
*4174 PHY_EDGE_ROW_20_Right_20
*4175 PHY_EDGE_ROW_21_Left_60
*4176 PHY_EDGE_ROW_21_Right_21
*4177 PHY_EDGE_ROW_22_Left_61
*4178 PHY_EDGE_ROW_22_Right_22
*4179 PHY_EDGE_ROW_23_Left_62
*4180 PHY_EDGE_ROW_23_Right_23
*4181 PHY_EDGE_ROW_24_Left_63
*4182 PHY_EDGE_ROW_24_Right_24
*4183 PHY_EDGE_ROW_25_Left_64
*4184 PHY_EDGE_ROW_25_Right_25
*4185 PHY_EDGE_ROW_26_Left_65
*4186 PHY_EDGE_ROW_26_Right_26
*4187 PHY_EDGE_ROW_27_Left_66
*4188 PHY_EDGE_ROW_27_Right_27
*4189 PHY_EDGE_ROW_28_Left_67
*4190 PHY_EDGE_ROW_28_Right_28
*4191 PHY_EDGE_ROW_29_Left_68
*4192 PHY_EDGE_ROW_29_Right_29
*4193 PHY_EDGE_ROW_2_Left_41
*4194 PHY_EDGE_ROW_2_Right_2
*4195 PHY_EDGE_ROW_30_Left_69
*4196 PHY_EDGE_ROW_30_Right_30
*4197 PHY_EDGE_ROW_31_Left_70
*4198 PHY_EDGE_ROW_31_Right_31
*4199 PHY_EDGE_ROW_32_Left_71
*4200 PHY_EDGE_ROW_32_Right_32
*4201 PHY_EDGE_ROW_33_Left_72
*4202 PHY_EDGE_ROW_33_Right_33
*4203 PHY_EDGE_ROW_34_Left_73
*4204 PHY_EDGE_ROW_34_Right_34
*4205 PHY_EDGE_ROW_35_Left_74
*4206 PHY_EDGE_ROW_35_Right_35
*4207 PHY_EDGE_ROW_36_Left_75
*4208 PHY_EDGE_ROW_36_Right_36
*4209 PHY_EDGE_ROW_37_Left_76
*4210 PHY_EDGE_ROW_37_Right_37
*4211 PHY_EDGE_ROW_38_Left_77
*4212 PHY_EDGE_ROW_38_Right_38
*4213 PHY_EDGE_ROW_3_Left_42
*4214 PHY_EDGE_ROW_3_Right_3
*4215 PHY_EDGE_ROW_4_Left_43
*4216 PHY_EDGE_ROW_4_Right_4
*4217 PHY_EDGE_ROW_5_Left_44
*4218 PHY_EDGE_ROW_5_Right_5
*4219 PHY_EDGE_ROW_6_Left_45
*4220 PHY_EDGE_ROW_6_Right_6
*4221 PHY_EDGE_ROW_7_Left_46
*4222 PHY_EDGE_ROW_7_Right_7
*4223 PHY_EDGE_ROW_8_Left_47
*4224 PHY_EDGE_ROW_8_Right_8
*4225 PHY_EDGE_ROW_9_Left_48
*4226 PHY_EDGE_ROW_9_Right_9
*4227 TAP_TAPCELL_ROW_0_78
*4228 TAP_TAPCELL_ROW_0_79
*4229 TAP_TAPCELL_ROW_0_80
*4230 TAP_TAPCELL_ROW_0_81
*4231 TAP_TAPCELL_ROW_0_82
*4232 TAP_TAPCELL_ROW_0_83
*4233 TAP_TAPCELL_ROW_0_84
*4234 TAP_TAPCELL_ROW_0_85
*4235 TAP_TAPCELL_ROW_0_86
*4236 TAP_TAPCELL_ROW_0_87
*4237 TAP_TAPCELL_ROW_0_88
*4238 TAP_TAPCELL_ROW_10_138
*4239 TAP_TAPCELL_ROW_10_139
*4240 TAP_TAPCELL_ROW_10_140
*4241 TAP_TAPCELL_ROW_10_141
*4242 TAP_TAPCELL_ROW_10_142
*4243 TAP_TAPCELL_ROW_10_143
*4244 TAP_TAPCELL_ROW_11_144
*4245 TAP_TAPCELL_ROW_11_145
*4246 TAP_TAPCELL_ROW_11_146
*4247 TAP_TAPCELL_ROW_11_147
*4248 TAP_TAPCELL_ROW_11_148
*4249 TAP_TAPCELL_ROW_12_149
*4250 TAP_TAPCELL_ROW_12_150
*4251 TAP_TAPCELL_ROW_12_151
*4252 TAP_TAPCELL_ROW_12_152
*4253 TAP_TAPCELL_ROW_12_153
*4254 TAP_TAPCELL_ROW_12_154
*4255 TAP_TAPCELL_ROW_13_155
*4256 TAP_TAPCELL_ROW_13_156
*4257 TAP_TAPCELL_ROW_13_157
*4258 TAP_TAPCELL_ROW_13_158
*4259 TAP_TAPCELL_ROW_13_159
*4260 TAP_TAPCELL_ROW_14_160
*4261 TAP_TAPCELL_ROW_14_161
*4262 TAP_TAPCELL_ROW_14_162
*4263 TAP_TAPCELL_ROW_14_163
*4264 TAP_TAPCELL_ROW_14_164
*4265 TAP_TAPCELL_ROW_14_165
*4266 TAP_TAPCELL_ROW_15_166
*4267 TAP_TAPCELL_ROW_15_167
*4268 TAP_TAPCELL_ROW_15_168
*4269 TAP_TAPCELL_ROW_15_169
*4270 TAP_TAPCELL_ROW_15_170
*4271 TAP_TAPCELL_ROW_16_171
*4272 TAP_TAPCELL_ROW_16_172
*4273 TAP_TAPCELL_ROW_16_173
*4274 TAP_TAPCELL_ROW_16_174
*4275 TAP_TAPCELL_ROW_16_175
*4276 TAP_TAPCELL_ROW_16_176
*4277 TAP_TAPCELL_ROW_17_177
*4278 TAP_TAPCELL_ROW_17_178
*4279 TAP_TAPCELL_ROW_17_179
*4280 TAP_TAPCELL_ROW_17_180
*4281 TAP_TAPCELL_ROW_17_181
*4282 TAP_TAPCELL_ROW_18_182
*4283 TAP_TAPCELL_ROW_18_183
*4284 TAP_TAPCELL_ROW_18_184
*4285 TAP_TAPCELL_ROW_18_185
*4286 TAP_TAPCELL_ROW_18_186
*4287 TAP_TAPCELL_ROW_18_187
*4288 TAP_TAPCELL_ROW_19_188
*4289 TAP_TAPCELL_ROW_19_189
*4290 TAP_TAPCELL_ROW_19_190
*4291 TAP_TAPCELL_ROW_19_191
*4292 TAP_TAPCELL_ROW_19_192
*4293 TAP_TAPCELL_ROW_1_89
*4294 TAP_TAPCELL_ROW_1_90
*4295 TAP_TAPCELL_ROW_1_91
*4296 TAP_TAPCELL_ROW_1_92
*4297 TAP_TAPCELL_ROW_1_93
*4298 TAP_TAPCELL_ROW_20_193
*4299 TAP_TAPCELL_ROW_20_194
*4300 TAP_TAPCELL_ROW_20_195
*4301 TAP_TAPCELL_ROW_20_196
*4302 TAP_TAPCELL_ROW_20_197
*4303 TAP_TAPCELL_ROW_20_198
*4304 TAP_TAPCELL_ROW_21_199
*4305 TAP_TAPCELL_ROW_21_200
*4306 TAP_TAPCELL_ROW_21_201
*4307 TAP_TAPCELL_ROW_21_202
*4308 TAP_TAPCELL_ROW_21_203
*4309 TAP_TAPCELL_ROW_22_204
*4310 TAP_TAPCELL_ROW_22_205
*4311 TAP_TAPCELL_ROW_22_206
*4312 TAP_TAPCELL_ROW_22_207
*4313 TAP_TAPCELL_ROW_22_208
*4314 TAP_TAPCELL_ROW_22_209
*4315 TAP_TAPCELL_ROW_23_210
*4316 TAP_TAPCELL_ROW_23_211
*4317 TAP_TAPCELL_ROW_23_212
*4318 TAP_TAPCELL_ROW_23_213
*4319 TAP_TAPCELL_ROW_23_214
*4320 TAP_TAPCELL_ROW_24_215
*4321 TAP_TAPCELL_ROW_24_216
*4322 TAP_TAPCELL_ROW_24_217
*4323 TAP_TAPCELL_ROW_24_218
*4324 TAP_TAPCELL_ROW_24_219
*4325 TAP_TAPCELL_ROW_24_220
*4326 TAP_TAPCELL_ROW_25_221
*4327 TAP_TAPCELL_ROW_25_222
*4328 TAP_TAPCELL_ROW_25_223
*4329 TAP_TAPCELL_ROW_25_224
*4330 TAP_TAPCELL_ROW_25_225
*4331 TAP_TAPCELL_ROW_26_226
*4332 TAP_TAPCELL_ROW_26_227
*4333 TAP_TAPCELL_ROW_26_228
*4334 TAP_TAPCELL_ROW_26_229
*4335 TAP_TAPCELL_ROW_26_230
*4336 TAP_TAPCELL_ROW_26_231
*4337 TAP_TAPCELL_ROW_27_232
*4338 TAP_TAPCELL_ROW_27_233
*4339 TAP_TAPCELL_ROW_27_234
*4340 TAP_TAPCELL_ROW_27_235
*4341 TAP_TAPCELL_ROW_27_236
*4342 TAP_TAPCELL_ROW_28_237
*4343 TAP_TAPCELL_ROW_28_238
*4344 TAP_TAPCELL_ROW_28_239
*4345 TAP_TAPCELL_ROW_28_240
*4346 TAP_TAPCELL_ROW_28_241
*4347 TAP_TAPCELL_ROW_28_242
*4348 TAP_TAPCELL_ROW_29_243
*4349 TAP_TAPCELL_ROW_29_244
*4350 TAP_TAPCELL_ROW_29_245
*4351 TAP_TAPCELL_ROW_29_246
*4352 TAP_TAPCELL_ROW_29_247
*4353 TAP_TAPCELL_ROW_2_94
*4354 TAP_TAPCELL_ROW_2_95
*4355 TAP_TAPCELL_ROW_2_96
*4356 TAP_TAPCELL_ROW_2_97
*4357 TAP_TAPCELL_ROW_2_98
*4358 TAP_TAPCELL_ROW_2_99
*4359 TAP_TAPCELL_ROW_30_248
*4360 TAP_TAPCELL_ROW_30_249
*4361 TAP_TAPCELL_ROW_30_250
*4362 TAP_TAPCELL_ROW_30_251
*4363 TAP_TAPCELL_ROW_30_252
*4364 TAP_TAPCELL_ROW_30_253
*4365 TAP_TAPCELL_ROW_31_254
*4366 TAP_TAPCELL_ROW_31_255
*4367 TAP_TAPCELL_ROW_31_256
*4368 TAP_TAPCELL_ROW_31_257
*4369 TAP_TAPCELL_ROW_31_258
*4370 TAP_TAPCELL_ROW_32_259
*4371 TAP_TAPCELL_ROW_32_260
*4372 TAP_TAPCELL_ROW_32_261
*4373 TAP_TAPCELL_ROW_32_262
*4374 TAP_TAPCELL_ROW_32_263
*4375 TAP_TAPCELL_ROW_32_264
*4376 TAP_TAPCELL_ROW_33_265
*4377 TAP_TAPCELL_ROW_33_266
*4378 TAP_TAPCELL_ROW_33_267
*4379 TAP_TAPCELL_ROW_33_268
*4380 TAP_TAPCELL_ROW_33_269
*4381 TAP_TAPCELL_ROW_34_270
*4382 TAP_TAPCELL_ROW_34_271
*4383 TAP_TAPCELL_ROW_34_272
*4384 TAP_TAPCELL_ROW_34_273
*4385 TAP_TAPCELL_ROW_34_274
*4386 TAP_TAPCELL_ROW_34_275
*4387 TAP_TAPCELL_ROW_35_276
*4388 TAP_TAPCELL_ROW_35_277
*4389 TAP_TAPCELL_ROW_35_278
*4390 TAP_TAPCELL_ROW_35_279
*4391 TAP_TAPCELL_ROW_35_280
*4392 TAP_TAPCELL_ROW_36_281
*4393 TAP_TAPCELL_ROW_36_282
*4394 TAP_TAPCELL_ROW_36_283
*4395 TAP_TAPCELL_ROW_36_284
*4396 TAP_TAPCELL_ROW_36_285
*4397 TAP_TAPCELL_ROW_36_286
*4398 TAP_TAPCELL_ROW_37_287
*4399 TAP_TAPCELL_ROW_37_288
*4400 TAP_TAPCELL_ROW_37_289
*4401 TAP_TAPCELL_ROW_37_290
*4402 TAP_TAPCELL_ROW_37_291
*4403 TAP_TAPCELL_ROW_38_292
*4404 TAP_TAPCELL_ROW_38_293
*4405 TAP_TAPCELL_ROW_38_294
*4406 TAP_TAPCELL_ROW_38_295
*4407 TAP_TAPCELL_ROW_38_296
*4408 TAP_TAPCELL_ROW_38_297
*4409 TAP_TAPCELL_ROW_38_298
*4410 TAP_TAPCELL_ROW_38_299
*4411 TAP_TAPCELL_ROW_38_300
*4412 TAP_TAPCELL_ROW_38_301
*4413 TAP_TAPCELL_ROW_38_302
*4414 TAP_TAPCELL_ROW_3_100
*4415 TAP_TAPCELL_ROW_3_101
*4416 TAP_TAPCELL_ROW_3_102
*4417 TAP_TAPCELL_ROW_3_103
*4418 TAP_TAPCELL_ROW_3_104
*4419 TAP_TAPCELL_ROW_4_105
*4420 TAP_TAPCELL_ROW_4_106
*4421 TAP_TAPCELL_ROW_4_107
*4422 TAP_TAPCELL_ROW_4_108
*4423 TAP_TAPCELL_ROW_4_109
*4424 TAP_TAPCELL_ROW_4_110
*4425 TAP_TAPCELL_ROW_5_111
*4426 TAP_TAPCELL_ROW_5_112
*4427 TAP_TAPCELL_ROW_5_113
*4428 TAP_TAPCELL_ROW_5_114
*4429 TAP_TAPCELL_ROW_5_115
*4430 TAP_TAPCELL_ROW_6_116
*4431 TAP_TAPCELL_ROW_6_117
*4432 TAP_TAPCELL_ROW_6_118
*4433 TAP_TAPCELL_ROW_6_119
*4434 TAP_TAPCELL_ROW_6_120
*4435 TAP_TAPCELL_ROW_6_121
*4436 TAP_TAPCELL_ROW_7_122
*4437 TAP_TAPCELL_ROW_7_123
*4438 TAP_TAPCELL_ROW_7_124
*4439 TAP_TAPCELL_ROW_7_125
*4440 TAP_TAPCELL_ROW_7_126
*4441 TAP_TAPCELL_ROW_8_127
*4442 TAP_TAPCELL_ROW_8_128
*4443 TAP_TAPCELL_ROW_8_129
*4444 TAP_TAPCELL_ROW_8_130
*4445 TAP_TAPCELL_ROW_8_131
*4446 TAP_TAPCELL_ROW_8_132
*4447 TAP_TAPCELL_ROW_9_133
*4448 TAP_TAPCELL_ROW_9_134
*4449 TAP_TAPCELL_ROW_9_135
*4450 TAP_TAPCELL_ROW_9_136
*4451 TAP_TAPCELL_ROW_9_137
*4452 _157_
*4453 _158_
*4454 _159_
*4455 _160_
*4456 _161_
*4457 _162_
*4458 _163_
*4459 _164_
*4460 _165_
*4461 _166_
*4462 _167_
*4463 _168_
*4464 _169_
*4465 _170_
*4466 _171_
*4467 _172_
*4468 _173_
*4469 _174_
*4470 _175_
*4471 _176_
*4472 _177_
*4473 _178_
*4474 _179_
*4475 _180_
*4476 _181_
*4477 _182_
*4478 _183_
*4479 _184_
*4480 _185_
*4481 _186_
*4482 _187_
*4483 _188_
*4484 _189_
*4485 _190_
*4486 _191_
*4487 _192_
*4488 _193_
*4489 _194_
*4490 _195_
*4491 _196_
*4492 _197_
*4493 _198_
*4494 _199_
*4495 _200_
*4496 _201_
*4497 _202_
*4498 _203_
*4499 _204_
*4500 _205_
*4501 _206_
*4502 _207_
*4503 _208_
*4504 _209_
*4505 _210_
*4506 _211_
*4507 _212_
*4508 _213_
*4509 _214_
*4510 _215_
*4511 _216_
*4512 _217_
*4513 _218_
*4514 _219_
*4515 _220_
*4516 _221_
*4517 _222_
*4518 _223_
*4519 _224_
*4520 _225_
*4521 _226_
*4522 _227_
*4523 _228_
*4524 _229_
*4525 _230_
*4526 _231_
*4527 _232_
*4528 _233_
*4529 _234_
*4530 _235_
*4531 _236_
*4532 _237_
*4533 _238_
*4534 _239_
*4535 _240_
*4536 _241_
*4537 _242_
*4538 _243_
*4539 _244_
*4540 _245_
*4541 _246_
*4542 _247_
*4543 _248_
*4544 _249_
*4545 _250_
*4546 _251_
*4547 _252_
*4548 _253_
*4549 _254_
*4550 _255_
*4551 _256_
*4552 _257_
*4553 _258_
*4554 _259_
*4555 _260_
*4556 _261_
*4557 _262_
*4558 _263_
*4559 _264_
*4560 _265_
*4561 _266_
*4562 _267_
*4563 _268_
*4564 _269_
*4565 _270_
*4566 _271_
*4567 _272_
*4568 _273_
*4569 _274_
*4570 _275_
*4571 _276_
*4572 _277_
*4573 _278_
*4574 _279_
*4575 _280_
*4576 _281_
*4577 _282_
*4578 _283_
*4579 _284_
*4580 _285_
*4581 _286_
*4582 _287_
*4583 _288_
*4584 _289_
*4585 _290_
*4586 _291_
*4587 _292_
*4588 _293_
*4589 _294_
*4590 _295_
*4591 _296_
*4592 _297_
*4593 _298_
*4594 _299_
*4595 _300_
*4596 _301_
*4597 _302_
*4598 _303_
*4599 _304_
*4600 _305_
*4601 _306_
*4602 _307_
*4603 _308_
*4604 _309_
*4605 _310_
*4606 _311_
*4607 _312_
*4608 _313_
*4609 _314_
*4610 _315_
*4611 _316_
*4612 _317_
*4613 _318_
*4614 _319_
*4615 _320_
*4616 _321_
*4617 _322_
*4618 _323_
*4619 _324_
*4620 _325_
*4621 _326_
*4622 _327_
*4623 _328_
*4624 _329_
*4625 clkbuf_0_clk
*4626 clkbuf_1_0__f_clk
*4627 clkbuf_1_1__f_clk
*4628 fanout28
*4629 fanout29
*4630 fanout30
*4631 fanout31
*4632 fanout32
*4633 fanout33
*4634 fanout34
*4635 fanout35
*4636 fanout36
*4637 fanout37
*4638 fanout38
*4639 fanout39
*4640 fanout40
*4641 hold1
*4642 hold2
*4643 hold3
*4644 hold4
*4645 hold5
*4646 input1
*4647 input2
*4648 input3
*4649 input4
*4650 input5
*4651 input6
*4652 input7
*4653 input8
*4654 max_cap17
*4655 max_cap18
*4656 max_cap19
*4657 max_cap20
*4658 max_cap21
*4659 max_cap22
*4660 max_cap24
*4661 max_cap25
*4662 max_cap26
*4663 output10
*4664 output11
*4665 output12
*4666 output13
*4667 output14
*4668 output15
*4669 output16
*4670 output9
*4671 tt_um_chip_rom_27
*4672 tt_um_chip_rom_28
*4673 tt_um_chip_rom_29
*4674 tt_um_chip_rom_30
*4675 tt_um_chip_rom_31
*4676 tt_um_chip_rom_32
*4677 tt_um_chip_rom_33
*4678 tt_um_chip_rom_34
*4679 tt_um_chip_rom_35
*4680 tt_um_chip_rom_36
*4681 tt_um_chip_rom_37
*4682 tt_um_chip_rom_38
*4683 tt_um_chip_rom_39
*4684 tt_um_chip_rom_40
*4685 tt_um_chip_rom_41
*4686 tt_um_chip_rom_42
*4687 wire23

*PORTS
clk I
ena I
rst_n I
ui_in[0] I
ui_in[1] I
ui_in[2] I
ui_in[3] I
ui_in[4] I
ui_in[5] I
ui_in[6] I
ui_in[7] I
uio_in[0] I
uio_in[1] I
uio_in[2] I
uio_in[3] I
uio_in[4] I
uio_in[5] I
uio_in[6] I
uio_in[7] I
uio_oe[0] O
uio_oe[1] O
uio_oe[2] O
uio_oe[3] O
uio_oe[4] O
uio_oe[5] O
uio_oe[6] O
uio_oe[7] O
uio_out[0] O
uio_out[1] O
uio_out[2] O
uio_out[3] O
uio_out[4] O
uio_out[5] O
uio_out[6] O
uio_out[7] O
uo_out[0] O
uo_out[1] O
uo_out[2] O
uo_out[3] O
uo_out[4] O
uo_out[5] O
uo_out[6] O
uo_out[7] O

*D_NET *3 0.00490464
*CONN
*P clk I
*I *4625:A I *D sky130_fd_sc_hd__clkbuf_16
*CAP
1 clk 0.00163452
2 *4625:A 0.000210951
3 *3:15 0.00184547
4 *4625:A *254:10 6.71188e-05
5 *3:15 *4626:A 0
6 *3:15 *5:13 0.000686066
7 *3:15 *5:19 0
8 *3:15 *49:10 0.000169665
9 *3:15 *142:10 7.81176e-05
10 *3:15 *206:47 9.39159e-05
11 *3:15 *211:21 0
12 *3:15 *213:16 0.000118825
13 *3:15 *247:10 0
14 *3:15 *247:21 0
15 *3:15 *247:64 0
*RES
1 clk *3:15 47.1007 
2 *3:15 *4625:A 26.9564 
*END

*D_NET *5 0.00654347
*CONN
*P rst_n I
*I *4640:A I *D sky130_fd_sc_hd__clkbuf_2
*I *4639:A I *D sky130_fd_sc_hd__clkbuf_1
*CAP
1 rst_n 0.00212922
2 *4640:A 0
3 *4639:A 0
4 *5:19 0.000729146
5 *5:13 0.00285837
6 *5:13 *6:15 1.74644e-05
7 *5:13 *7:15 0
8 *5:19 *4613:A 6.63698e-05
9 *5:19 *4645:A 0
10 *5:19 *58:10 3.46181e-05
11 *5:19 *207:10 0
12 *5:19 *207:16 0
13 *5:19 *245:10 2.22183e-05
14 *5:19 *254:10 0
15 *3:15 *5:13 0.000686066
16 *3:15 *5:19 0
*RES
1 rst_n *5:13 23.8561 
2 *5:13 *5:19 28.9407 
3 *5:19 *4639:A 23 
4 *5:13 *4640:A 38 
*END

*D_NET *6 0.000675348
*CONN
*P ui_in[0] I
*I *4646:A I *D sky130_fd_sc_hd__buf_1
*CAP
1 ui_in[0] 0.000317716
2 *4646:A 0
3 *6:15 0.000317716
4 *6:15 *7:15 2.24522e-05
5 *5:13 *6:15 1.74644e-05
*RES
1 ui_in[0] *6:15 34.8861 
2 *6:15 *4646:A 23 
*END

*D_NET *7 0.000756251
*CONN
*P ui_in[1] I
*I *4647:A I *D sky130_fd_sc_hd__buf_1
*CAP
1 ui_in[1] 0.000358167
2 *4647:A 0
3 *7:15 0.000358167
4 *7:15 *8:15 1.74644e-05
5 *7:15 *10:15 0
6 *5:13 *7:15 0
7 *6:15 *7:15 2.24522e-05
*RES
1 ui_in[1] *7:15 33.7314 
2 *7:15 *4647:A 23 
*END

*D_NET *8 0.000597792
*CONN
*P ui_in[2] I
*I *4648:A I *D sky130_fd_sc_hd__buf_1
*CAP
1 ui_in[2] 0.000281432
2 *4648:A 0
3 *8:15 0.000281432
4 *8:15 *9:15 1.74644e-05
5 *7:15 *8:15 1.74644e-05
*RES
1 ui_in[2] *8:15 34.7144 
2 *8:15 *4648:A 23 
*END

*D_NET *9 0.000685429
*CONN
*P ui_in[3] I
*I *4649:A I *D sky130_fd_sc_hd__buf_1
*CAP
1 ui_in[3] 0.000322756
2 *4649:A 0
3 *9:15 0.000322756
4 *9:15 *10:15 2.24522e-05
5 *8:15 *9:15 1.74644e-05
*RES
1 ui_in[3] *9:15 34.8861 
2 *9:15 *4649:A 23 
*END

*D_NET *10 0.000612622
*CONN
*P ui_in[4] I
*I *4650:A I *D sky130_fd_sc_hd__buf_1
*CAP
1 ui_in[4] 0.000263565
2 *4650:A 0
3 *10:15 0.000263565
4 *10:15 *11:15 6.30391e-05
5 *7:15 *10:15 0
6 *9:15 *10:15 2.24522e-05
*RES
1 ui_in[4] *10:15 33.5597 
2 *10:15 *4650:A 23 
*END

*D_NET *11 0.000636473
*CONN
*P ui_in[5] I
*I *4651:A I *D sky130_fd_sc_hd__buf_1
*CAP
1 ui_in[5] 0.000277985
2 *4651:A 0
3 *11:15 0.000277985
4 *11:15 *12:15 1.74644e-05
5 *10:15 *11:15 6.30391e-05
*RES
1 ui_in[5] *11:15 33.5597 
2 *11:15 *4651:A 23 
*END

*D_NET *12 0.000695751
*CONN
*P ui_in[6] I
*I *4652:A I *D sky130_fd_sc_hd__buf_1
*CAP
1 ui_in[6] 0.000330411
2 *4652:A 0
3 *12:15 0.000330411
4 *12:15 *13:15 1.74644e-05
5 *11:15 *12:15 1.74644e-05
*RES
1 ui_in[6] *12:15 34.8861 
2 *12:15 *4652:A 23 
*END

*D_NET *13 0.000605588
*CONN
*P ui_in[7] I
*I *4653:A I *D sky130_fd_sc_hd__buf_1
*CAP
1 ui_in[7] 0.000277505
2 *4653:A 0
3 *13:15 0.000277505
4 *13:15 *4454:A1 3.31127e-05
5 *12:15 *13:15 1.74644e-05
*RES
1 ui_in[7] *13:15 34.7144 
2 *13:15 *4653:A 23 
*END

*D_NET *22 0.000472565
*CONN
*P uio_oe[0] O
*I *4671:LO O *D sky130_fd_sc_hd__conb_1
*CAP
1 uio_oe[0] 7.37673e-05
2 *4671:LO 7.87241e-05
3 *22:12 0.000152491
4 uio_oe[0] uio_oe[1] 8.37912e-05
5 uio_oe[0] uio_out[7] 8.37912e-05
*RES
1 *4671:LO *22:12 46.42 
2 *22:12 uio_oe[0] 8.50587 
*END

*D_NET *23 0.000472565
*CONN
*P uio_oe[1] O
*I *4672:LO O *D sky130_fd_sc_hd__conb_1
*CAP
1 uio_oe[1] 7.37673e-05
2 *4672:LO 7.87241e-05
3 *23:12 0.000152491
4 uio_oe[1] uio_oe[2] 8.37912e-05
5 uio_oe[0] uio_oe[1] 8.37912e-05
*RES
1 *4672:LO *23:12 46.42 
2 *23:12 uio_oe[1] 8.50587 
*END

*D_NET *24 0.000472565
*CONN
*P uio_oe[2] O
*I *4673:LO O *D sky130_fd_sc_hd__conb_1
*CAP
1 uio_oe[2] 7.37673e-05
2 *4673:LO 7.87241e-05
3 *24:12 0.000152491
4 uio_oe[2] uio_oe[3] 8.37912e-05
5 uio_oe[1] uio_oe[2] 8.37912e-05
*RES
1 *4673:LO *24:12 46.42 
2 *24:12 uio_oe[2] 8.50587 
*END

*D_NET *25 0.000472565
*CONN
*P uio_oe[3] O
*I *4674:LO O *D sky130_fd_sc_hd__conb_1
*CAP
1 uio_oe[3] 7.37673e-05
2 *4674:LO 7.87241e-05
3 *25:12 0.000152491
4 uio_oe[3] uio_oe[4] 8.37912e-05
5 uio_oe[2] uio_oe[3] 8.37912e-05
*RES
1 *4674:LO *25:12 46.42 
2 *25:12 uio_oe[3] 8.50587 
*END

*D_NET *26 0.000472565
*CONN
*P uio_oe[4] O
*I *4675:LO O *D sky130_fd_sc_hd__conb_1
*CAP
1 uio_oe[4] 7.37673e-05
2 *4675:LO 7.87241e-05
3 *26:12 0.000152491
4 uio_oe[4] uio_oe[5] 8.37912e-05
5 uio_oe[3] uio_oe[4] 8.37912e-05
*RES
1 *4675:LO *26:12 46.42 
2 *26:12 uio_oe[4] 8.50587 
*END

*D_NET *27 0.000472565
*CONN
*P uio_oe[5] O
*I *4676:LO O *D sky130_fd_sc_hd__conb_1
*CAP
1 uio_oe[5] 7.37673e-05
2 *4676:LO 7.87241e-05
3 *27:12 0.000152491
4 uio_oe[5] uio_oe[6] 8.37912e-05
5 uio_oe[4] uio_oe[5] 8.37912e-05
*RES
1 *4676:LO *27:12 46.42 
2 *27:12 uio_oe[5] 8.50587 
*END

*D_NET *28 0.000472565
*CONN
*P uio_oe[6] O
*I *4677:LO O *D sky130_fd_sc_hd__conb_1
*CAP
1 uio_oe[6] 7.37673e-05
2 *4677:LO 7.87241e-05
3 *28:12 0.000152491
4 uio_oe[6] uio_oe[7] 8.37912e-05
5 uio_oe[5] uio_oe[6] 8.37912e-05
*RES
1 *4677:LO *28:12 46.42 
2 *28:12 uio_oe[6] 8.50587 
*END

*D_NET *29 0.000441904
*CONN
*P uio_oe[7] O
*I *4678:LO O *D sky130_fd_sc_hd__conb_1
*CAP
1 uio_oe[7] 0.000100332
2 *4678:LO 7.87241e-05
3 *29:12 0.000179056
4 uio_oe[6] uio_oe[7] 8.37912e-05
*RES
1 *4678:LO *29:12 46.42 
2 *29:12 uio_oe[7] 8.50587 
*END

*D_NET *30 0.000472565
*CONN
*P uio_out[0] O
*I *4679:LO O *D sky130_fd_sc_hd__conb_1
*CAP
1 uio_out[0] 7.37673e-05
2 *4679:LO 7.87241e-05
3 *30:12 0.000152491
4 uio_out[0] uio_out[1] 8.37912e-05
5 uio_out[0] uo_out[7] 8.37912e-05
*RES
1 *4679:LO *30:12 46.42 
2 *30:12 uio_out[0] 8.50587 
*END

*D_NET *31 0.000472565
*CONN
*P uio_out[1] O
*I *4680:LO O *D sky130_fd_sc_hd__conb_1
*CAP
1 uio_out[1] 7.37673e-05
2 *4680:LO 7.87241e-05
3 *31:12 0.000152491
4 uio_out[1] uio_out[2] 8.37912e-05
5 uio_out[0] uio_out[1] 8.37912e-05
*RES
1 *4680:LO *31:12 46.42 
2 *31:12 uio_out[1] 8.50587 
*END

*D_NET *32 0.000472565
*CONN
*P uio_out[2] O
*I *4681:LO O *D sky130_fd_sc_hd__conb_1
*CAP
1 uio_out[2] 7.37673e-05
2 *4681:LO 7.87241e-05
3 *32:12 0.000152491
4 uio_out[2] uio_out[3] 8.37912e-05
5 uio_out[1] uio_out[2] 8.37912e-05
*RES
1 *4681:LO *32:12 46.42 
2 *32:12 uio_out[2] 8.50587 
*END

*D_NET *33 0.000472565
*CONN
*P uio_out[3] O
*I *4682:LO O *D sky130_fd_sc_hd__conb_1
*CAP
1 uio_out[3] 7.37673e-05
2 *4682:LO 7.87241e-05
3 *33:12 0.000152491
4 uio_out[3] uio_out[4] 8.37912e-05
5 uio_out[2] uio_out[3] 8.37912e-05
*RES
1 *4682:LO *33:12 46.42 
2 *33:12 uio_out[3] 8.50587 
*END

*D_NET *34 0.000472565
*CONN
*P uio_out[4] O
*I *4683:LO O *D sky130_fd_sc_hd__conb_1
*CAP
1 uio_out[4] 7.37673e-05
2 *4683:LO 7.87241e-05
3 *34:12 0.000152491
4 uio_out[4] uio_out[5] 8.37912e-05
5 uio_out[3] uio_out[4] 8.37912e-05
*RES
1 *4683:LO *34:12 46.42 
2 *34:12 uio_out[4] 8.50587 
*END

*D_NET *35 0.000472565
*CONN
*P uio_out[5] O
*I *4684:LO O *D sky130_fd_sc_hd__conb_1
*CAP
1 uio_out[5] 7.37673e-05
2 *4684:LO 7.87241e-05
3 *35:12 0.000152491
4 uio_out[5] uio_out[6] 8.37912e-05
5 uio_out[4] uio_out[5] 8.37912e-05
*RES
1 *4684:LO *35:12 46.42 
2 *35:12 uio_out[5] 8.50587 
*END

*D_NET *36 0.000472565
*CONN
*P uio_out[6] O
*I *4685:LO O *D sky130_fd_sc_hd__conb_1
*CAP
1 uio_out[6] 7.37673e-05
2 *4685:LO 7.87241e-05
3 *36:12 0.000152491
4 uio_out[6] uio_out[7] 8.37912e-05
5 uio_out[5] uio_out[6] 8.37912e-05
*RES
1 *4685:LO *36:12 46.42 
2 *36:12 uio_out[6] 8.50587 
*END

*D_NET *37 0.000472565
*CONN
*P uio_out[7] O
*I *4686:LO O *D sky130_fd_sc_hd__conb_1
*CAP
1 uio_out[7] 7.37673e-05
2 *4686:LO 7.87241e-05
3 *37:12 0.000152491
4 uio_oe[0] uio_out[7] 8.37912e-05
5 uio_out[6] uio_out[7] 8.37912e-05
*RES
1 *4686:LO *37:12 46.42 
2 *37:12 uio_out[7] 8.50587 
*END

*D_NET *38 0.000473291
*CONN
*P uo_out[0] O
*I *4670:X O *D sky130_fd_sc_hd__clkbuf_1
*CAP
1 uo_out[0] 0.000108801
2 *4670:X 8.59492e-05
3 *38:12 0.00019475
4 uo_out[0] uo_out[1] 8.37912e-05
*RES
1 *4670:X *38:12 46.42 
2 *38:12 uo_out[0] 8.50587 
*END

*D_NET *39 0.000487016
*CONN
*P uo_out[1] O
*I *4663:X O *D sky130_fd_sc_hd__clkbuf_1
*CAP
1 uo_out[1] 7.37673e-05
2 *4663:X 8.59492e-05
3 *39:12 0.000159717
4 uo_out[1] uo_out[2] 8.37912e-05
5 uo_out[0] uo_out[1] 8.37912e-05
*RES
1 *4663:X *39:12 46.42 
2 *39:12 uo_out[1] 8.50587 
*END

*D_NET *40 0.000487016
*CONN
*P uo_out[2] O
*I *4664:X O *D sky130_fd_sc_hd__clkbuf_1
*CAP
1 uo_out[2] 7.37673e-05
2 *4664:X 8.59492e-05
3 *40:12 0.000159717
4 uo_out[2] uo_out[3] 8.37912e-05
5 uo_out[1] uo_out[2] 8.37912e-05
*RES
1 *4664:X *40:12 46.42 
2 *40:12 uo_out[2] 8.50587 
*END

*D_NET *41 0.000493909
*CONN
*P uo_out[3] O
*I *4665:X O *D sky130_fd_sc_hd__clkbuf_1
*CAP
1 uo_out[3] 7.37673e-05
2 *4665:X 8.93957e-05
3 *41:12 0.000163163
4 uo_out[3] uo_out[4] 8.37912e-05
5 uo_out[2] uo_out[3] 8.37912e-05
*RES
1 *4665:X *41:12 46.42 
2 *41:12 uo_out[3] 8.50587 
*END

*D_NET *42 0.000481391
*CONN
*P uo_out[4] O
*I *4666:X O *D sky130_fd_sc_hd__clkbuf_1
*CAP
1 uo_out[4] 7.37673e-05
2 *4666:X 8.31368e-05
3 *42:12 0.000156904
4 uo_out[4] uo_out[5] 8.37912e-05
5 uo_out[3] uo_out[4] 8.37912e-05
*RES
1 *4666:X *42:12 46.42 
2 *42:12 uo_out[4] 8.50587 
*END

*D_NET *43 0.000472565
*CONN
*P uo_out[5] O
*I *4667:X O *D sky130_fd_sc_hd__clkbuf_1
*CAP
1 uo_out[5] 7.37673e-05
2 *4667:X 7.87241e-05
3 *43:12 0.000152491
4 uo_out[5] uo_out[6] 8.37912e-05
5 uo_out[4] uo_out[5] 8.37912e-05
*RES
1 *4667:X *43:12 46.42 
2 *43:12 uo_out[5] 8.50587 
*END

*D_NET *44 0.000472565
*CONN
*P uo_out[6] O
*I *4668:X O *D sky130_fd_sc_hd__clkbuf_1
*CAP
1 uo_out[6] 7.37673e-05
2 *4668:X 7.87241e-05
3 *44:12 0.000152491
4 uo_out[6] uo_out[7] 8.37912e-05
5 uo_out[5] uo_out[6] 8.37912e-05
*RES
1 *4668:X *44:12 46.42 
2 *44:12 uo_out[6] 8.50587 
*END

*D_NET *45 0.000472565
*CONN
*P uo_out[7] O
*I *4669:X O *D sky130_fd_sc_hd__clkbuf_1
*CAP
1 uo_out[7] 7.37673e-05
2 *4669:X 7.87241e-05
3 *45:12 0.000152491
4 uio_out[0] uo_out[7] 8.37912e-05
5 uo_out[6] uo_out[7] 8.37912e-05
*RES
1 *4669:X *45:12 46.42 
2 *45:12 uo_out[7] 8.50587 
*END

*D_NET *46 0.00190303
*CONN
*I *4617:D I *D sky130_fd_sc_hd__dfrtp_4
*I *4453:Y O *D sky130_fd_sc_hd__inv_1
*CAP
1 *4617:D 0
2 *4453:Y 0.000350457
3 *46:10 0.000350457
4 *46:10 *4643:A 0.000336296
5 *46:10 *235:12 0.000166504
6 *46:10 *251:6 0.000699315
7 *46:10 *256:12 0
*RES
1 *4453:Y *46:10 48.7404 
2 *46:10 *4617:D 38 
*END

*D_NET *47 0.000745424
*CONN
*I *4618:D I *D sky130_fd_sc_hd__dfrtp_4
*I *4595:X O *D sky130_fd_sc_hd__xor2_1
*CAP
1 *4618:D 0
2 *4595:X 0.000299825
3 *47:10 0.000299825
4 *47:10 *4595:A 0.000102368
5 *47:10 *213:40 4.3407e-05
6 *47:10 *252:8 0
*RES
1 *4595:X *47:10 42.9093 
2 *47:10 *4618:D 38 
*END

*D_NET *48 0.000567262
*CONN
*I *4619:D I *D sky130_fd_sc_hd__dfrtp_1
*I *4598:Y O *D sky130_fd_sc_hd__nor2_1
*CAP
1 *4619:D 0
2 *4598:Y 0.000169364
3 *48:10 0.000169364
4 *48:10 *4597:B1 8.46458e-05
5 *48:10 *4598:B 2.1257e-05
6 *48:10 *4619:CLK 0.000122632
*RES
1 *4598:Y *48:10 27.1221 
2 *48:10 *4619:D 23 
*END

*D_NET *49 0.000535256
*CONN
*I *4620:D I *D sky130_fd_sc_hd__dfrtp_4
*I *4601:Y O *D sky130_fd_sc_hd__nor2_1
*CAP
1 *4620:D 0
2 *4601:Y 0.000140044
3 *49:10 0.000140044
4 *49:10 *206:16 3.71251e-05
5 *49:10 *211:21 0
6 *49:10 *213:16 4.83778e-05
7 *3:15 *49:10 0.000169665
*RES
1 *4601:Y *49:10 41.3557 
2 *49:10 *4620:D 38 
*END

*D_NET *50 0.00144834
*CONN
*I *4621:D I *D sky130_fd_sc_hd__dfrtp_4
*I *4602:X O *D sky130_fd_sc_hd__xor2_1
*CAP
1 *4621:D 0.000237084
2 *4602:X 0.000100267
3 *50:8 0.000337351
4 *4621:D *207:40 0.000568886
5 *50:8 *4626:A 0.000138708
6 *50:8 *141:8 6.18235e-05
7 *50:8 *141:10 4.21594e-06
8 *50:8 *212:10 0
*RES
1 *4602:X *50:8 40.61 
2 *50:8 *4621:D 44.3386 
*END

*D_NET *51 0.000690891
*CONN
*I *4622:D I *D sky130_fd_sc_hd__dfrtp_4
*I *4605:Y O *D sky130_fd_sc_hd__nor2_1
*CAP
1 *4622:D 0
2 *4605:Y 0.000144496
3 *51:6 0.000144496
4 *51:6 *208:8 0.000401899
*RES
1 *4605:Y *51:6 27.4329 
2 *51:6 *4622:D 23 
*END

*D_NET *52 0.000607909
*CONN
*I *4623:D I *D sky130_fd_sc_hd__dfrtp_4
*I *4608:X O *D sky130_fd_sc_hd__and2_1
*CAP
1 *4623:D 0
2 *4608:X 0.000234843
3 *52:6 0.000234843
4 *52:6 *4623:CLK 0.000105934
5 *52:6 *145:12 3.22879e-05
*RES
1 *4608:X *52:6 27.9093 
2 *52:6 *4623:D 23 
*END

*D_NET *53 0.00121794
*CONN
*I *4624:D I *D sky130_fd_sc_hd__dfrtp_1
*I *4609:Y O *D sky130_fd_sc_hd__xnor2_1
*CAP
1 *4624:D 0
2 *4609:Y 0.000363246
3 *53:8 0.000363246
4 *53:8 *4609:A 0.000491451
*RES
1 *4609:Y *53:8 29.3593 
2 *53:8 *4624:D 23 
*END

*D_NET *54 0.00964836
*CONN
*I *4617:RESET_B I *D sky130_fd_sc_hd__dfrtp_4
*I *4472:A1 I *D sky130_fd_sc_hd__o21ai_2
*I *4469:A1 I *D sky130_fd_sc_hd__o21ai_4
*I *4461:A1 I *D sky130_fd_sc_hd__o21ai_4
*I *4474:A I *D sky130_fd_sc_hd__or2_4
*I *4464:A1 I *D sky130_fd_sc_hd__o21ai_1
*I *4452:Y O *D sky130_fd_sc_hd__inv_6
*CAP
1 *4617:RESET_B 0.000468108
2 *4472:A1 0
3 *4469:A1 0.000291181
4 *4461:A1 2.95011e-05
5 *4474:A 0
6 *4464:A1 0.000101552
7 *4452:Y 0
8 *54:37 0.000901538
9 *54:25 0.00128945
10 *54:12 0.00064894
11 *54:10 0.000793032
12 *54:8 0.000686657
13 *54:6 0.000841894
14 *4461:A1 *4461:A2 5.50106e-05
15 *4464:A1 *4464:A2 4.5051e-05
16 *4464:A1 *4464:B1 5.67058e-05
17 *4464:A1 *157:6 0.000141052
18 *4469:A1 *162:8 0.000609769
19 *4617:RESET_B *203:14 0
20 *4617:RESET_B *255:10 3.04021e-05
21 *54:8 *203:14 0
22 *54:8 *246:29 3.14214e-05
23 *54:8 *247:98 0.000226364
24 *54:8 *253:10 0
25 *54:8 *255:10 0.000319989
26 *54:10 *158:10 8.08511e-05
27 *54:10 *246:29 7.55729e-05
28 *54:10 *253:10 0
29 *54:10 *255:10 0.000210571
30 *54:12 *158:10 0.000141969
31 *54:12 *255:10 0.00014522
32 *54:25 *158:10 2.76611e-06
33 *54:25 *253:10 0
34 *54:25 *255:10 0.000218627
35 *54:37 *4462:A1 0
36 *54:37 *4474:B 0.000795772
37 *54:37 *208:18 1.59603e-05
38 *54:37 *232:27 0.000271682
39 *54:37 *232:49 0
40 *54:37 *255:10 0.00012175
*RES
1 *4452:Y *54:6 38 
2 *54:6 *54:8 12.1179 
3 *54:8 *54:10 8.59643 
4 *54:10 *54:12 5.77929 
5 *54:12 *4464:A1 40.6721 
6 *54:12 *54:25 8.59643 
7 *54:25 *54:37 36.7914 
8 *54:37 *4474:A 23 
9 *54:25 *4461:A1 38.6214 
10 *54:10 *4469:A1 44.815 
11 *54:8 *4472:A1 38 
12 *54:6 *4617:RESET_B 22.0325 
*END

*D_NET *55 0.000485339
*CONN
*I *4618:RESET_B I *D sky130_fd_sc_hd__dfrtp_4
*I *4610:Y O *D sky130_fd_sc_hd__inv_1
*CAP
1 *4618:RESET_B 0
2 *4610:Y 0.000186648
3 *55:10 0.000186648
4 *55:10 *4610:A 8.54231e-06
5 *55:10 *4644:A 3.3123e-05
6 *55:10 *204:14 7.03766e-05
*RES
1 *4610:Y *55:10 41.4696 
2 *55:10 *4618:RESET_B 15 
*END

*D_NET *56 0.000421556
*CONN
*I *4619:RESET_B I *D sky130_fd_sc_hd__dfrtp_1
*I *4611:Y O *D sky130_fd_sc_hd__inv_1
*CAP
1 *4619:RESET_B 0
2 *4611:Y 0.00011992
3 *56:10 0.00011992
4 *56:10 *4611:A 9.81081e-06
5 *56:10 *4642:A 0.000171906
*RES
1 *4611:Y *56:10 40.6411 
2 *56:10 *4619:RESET_B 15 
*END

*D_NET *57 0.000434669
*CONN
*I *4620:RESET_B I *D sky130_fd_sc_hd__dfrtp_4
*I *4612:Y O *D sky130_fd_sc_hd__inv_1
*CAP
1 *4620:RESET_B 0
2 *4612:Y 0.000128726
3 *57:10 0.000128726
4 *57:10 *4612:A 1.16872e-05
5 *57:10 *206:10 3.56433e-05
6 *57:10 *206:14 1.5812e-05
7 *57:10 *247:10 0.000114074
*RES
1 *4612:Y *57:10 40.4132 
2 *57:10 *4620:RESET_B 15 
*END

*D_NET *58 0.000353629
*CONN
*I *4621:RESET_B I *D sky130_fd_sc_hd__dfrtp_4
*I *4613:Y O *D sky130_fd_sc_hd__inv_1
*CAP
1 *4621:RESET_B 0
2 *4613:Y 0.000134963
3 *58:10 0.000134963
4 *58:10 *4613:A 1.69511e-05
5 *58:10 *207:10 9.21347e-06
6 *58:10 *207:16 2.29192e-05
7 *5:19 *58:10 3.46181e-05
*RES
1 *4613:Y *58:10 40.4132 
2 *58:10 *4621:RESET_B 15 
*END

*D_NET *59 0.000275593
*CONN
*I *4622:RESET_B I *D sky130_fd_sc_hd__dfrtp_4
*I *4614:Y O *D sky130_fd_sc_hd__inv_1
*CAP
1 *4622:RESET_B 0
2 *4614:Y 0.000127841
3 *59:10 0.000127841
4 *59:10 *245:10 0
5 *59:10 *245:60 1.99109e-05
*RES
1 *4614:Y *59:10 39.9368 
2 *59:10 *4622:RESET_B 15 
*END

*D_NET *60 0.00043125
*CONN
*I *4623:RESET_B I *D sky130_fd_sc_hd__dfrtp_4
*I *4615:Y O *D sky130_fd_sc_hd__inv_1
*CAP
1 *4623:RESET_B 0
2 *4615:Y 0.00020147
3 *60:10 0.00020147
4 *60:10 *209:8 0
5 *60:10 *209:38 2.83091e-05
*RES
1 *4615:Y *60:10 41.8218 
2 *60:10 *4623:RESET_B 15 
*END

*D_NET *61 0.000474948
*CONN
*I *4624:RESET_B I *D sky130_fd_sc_hd__dfrtp_1
*I *4616:Y O *D sky130_fd_sc_hd__inv_1
*CAP
1 *4624:RESET_B 0
2 *4616:Y 0.000230344
3 *61:10 0.000230344
4 *61:10 *210:10 0
5 *61:10 *245:60 1.42605e-05
*RES
1 *4616:Y *61:10 41.9461 
2 *61:10 *4624:RESET_B 15 
*END

*D_NET *62 0.00671268
*CONN
*I *4511:B1 I *D sky130_fd_sc_hd__a32o_1
*I *4510:X O *D sky130_fd_sc_hd__o31a_1
*CAP
1 *4511:B1 6.31832e-05
2 *4510:X 9.63241e-05
3 *62:10 0.00209186
4 *62:8 0.002125
5 *4511:B1 *4511:A1 1.6318e-05
6 *4511:B1 *170:20 0.000114604
7 *4511:B1 *216:6 2.43944e-05
8 *62:8 *187:6 8.1796e-05
9 *62:10 *4511:A1 0.000112731
10 *62:10 *104:10 0.000114083
11 *62:10 *162:39 0.000225265
12 *62:10 *162:93 0.000123172
13 *62:10 *169:22 0
14 *62:10 *169:43 2.11157e-05
15 *62:10 *179:86 0.000598919
16 *62:10 *183:31 0
17 *62:10 *185:23 0
18 *62:10 *185:40 0
19 *62:10 *185:49 0
20 *62:10 *195:10 0
21 *62:10 *222:12 0.000308927
22 *62:10 *222:24 0.000162239
23 *62:10 *222:65 0.000137664
24 *62:10 *228:22 0.000295077
*RES
1 *4510:X *62:8 39.5743 
2 *62:8 *62:10 40.9936 
3 *62:10 *4511:B1 39.3361 
*END

*D_NET *63 0.000944754
*CONN
*I *4513:B1 I *D sky130_fd_sc_hd__a311o_1
*I *4512:Y O *D sky130_fd_sc_hd__a21oi_1
*CAP
1 *4513:B1 2.29603e-05
2 *4512:Y 0.000255279
3 *63:18 0.000278239
4 *4513:B1 *191:12 2.26497e-05
5 *4513:B1 *191:25 2.5607e-05
6 *4513:B1 *244:61 4.60157e-05
7 *63:18 *4513:A1 7.01569e-06
8 *63:18 *130:12 0.000200604
9 *63:18 *148:101 3.7122e-06
10 *63:18 *151:70 1.34542e-05
11 *63:18 *160:55 4.81019e-05
12 *63:18 *223:14 2.11157e-05
*RES
1 *4512:Y *63:18 48.4605 
2 *63:18 *4513:B1 46.6732 
*END

*D_NET *64 0.0020811
*CONN
*I *4521:A1 I *D sky130_fd_sc_hd__a31o_1
*I *4513:X O *D sky130_fd_sc_hd__a311o_1
*CAP
1 *4521:A1 0
2 *4513:X 0.000771169
3 *64:8 0.000771169
4 *64:8 *4521:A2 2.93747e-05
5 *64:8 *4521:A3 5.50106e-05
6 *64:8 *130:26 0.000454373
*RES
1 *4513:X *64:8 37.935 
2 *64:8 *4521:A1 23 
*END

*D_NET *65 0.0164444
*CONN
*I *4525:B1 I *D sky130_fd_sc_hd__a211o_1
*I *4515:B I *D sky130_fd_sc_hd__nor2_2
*I *4516:C I *D sky130_fd_sc_hd__or4b_1
*I *4518:B1 I *D sky130_fd_sc_hd__a211o_1
*I *4567:A3 I *D sky130_fd_sc_hd__o32a_1
*I *4537:B1 I *D sky130_fd_sc_hd__a211o_1
*I *4514:X O *D sky130_fd_sc_hd__and2b_4
*CAP
1 *4525:B1 0.000195581
2 *4515:B 0.000299351
3 *4516:C 0
4 *4518:B1 0.000113185
5 *4567:A3 0
6 *4537:B1 0
7 *4514:X 0.000236682
8 *65:50 0.000874533
9 *65:40 0.000919161
10 *65:38 0.000457163
11 *65:36 0.00182127
12 *65:32 0.00245491
13 *65:19 0.000680312
14 *65:8 0.000478939
15 *4515:B *185:49 9.39518e-05
16 *4515:B *186:18 0.000409017
17 *4515:B *218:8 9.24795e-06
18 *4515:B *222:8 5.37348e-06
19 *4515:B *228:28 0.000454752
20 *4515:B *228:30 4.85126e-05
21 *4518:B1 *4479:A 2.80753e-05
22 *4518:B1 *4518:A1 2.02517e-05
23 *4518:B1 *151:57 0.000441065
24 *4518:B1 *175:48 0.000179528
25 *4518:B1 *239:24 9.58714e-05
26 *4525:B1 *4513:A2 0.000180823
27 *4525:B1 *88:12 3.34818e-06
28 *4525:B1 *186:24 9.7937e-05
29 *4525:B1 *186:62 3.49995e-05
30 *4525:B1 *191:46 0.000320484
31 *65:8 *4514:B 3.81391e-05
32 *65:8 *4567:B1 2.71291e-05
33 *65:8 *151:70 0.000163361
34 *65:8 *179:12 1.69668e-05
35 *65:8 *192:29 8.68903e-05
36 *65:8 *223:27 1.02387e-05
37 *65:19 *4567:B1 8.56839e-05
38 *65:19 *151:70 0.000643822
39 *65:19 *227:75 0.000459657
40 *65:32 *4513:A2 0.00024521
41 *65:32 *4567:A2 9.41704e-05
42 *65:32 *4567:B2 3.623e-05
43 *65:32 *115:8 0.000139357
44 *65:32 *148:12 1.21972e-05
45 *65:32 *148:23 8.48502e-06
46 *65:32 *160:55 0.000139657
47 *65:32 *179:25 2.9564e-05
48 *65:32 *191:12 0.000160717
49 *65:32 *191:25 0.000158357
50 *65:32 *191:46 0.00014504
51 *65:36 *4635:A 1.14762e-05
52 *65:36 *168:30 0.000114856
53 *65:36 *196:46 0.000518506
54 *65:36 *224:10 0.000399835
55 *65:40 *185:40 4.21594e-06
56 *65:40 *185:49 7.52753e-05
57 *65:40 *228:30 0.000120554
58 *65:50 *4491:A 4.78793e-05
59 *65:50 *67:10 4.96717e-05
60 *65:50 *130:28 4.4553e-05
61 *65:50 *151:57 7.461e-05
62 *65:50 *172:16 0
63 *65:50 *172:29 0
64 *65:50 *179:63 0.000528158
65 *65:50 *185:40 3.2457e-05
66 *65:50 *186:73 0.000761053
67 *65:50 *228:30 6.07611e-06
68 *65:50 *239:14 0
69 *65:50 *239:24 0
*RES
1 *4514:X *65:8 43.075 
2 *65:8 *4537:B1 38 
3 *65:8 *65:19 23.5964 
4 *65:19 *4567:A3 23 
5 *65:19 *65:32 25.1086 
6 *65:32 *65:36 40.3957 
7 *65:36 *65:38 15 
8 *65:38 *65:40 3.66643 
9 *65:40 *65:50 47.3793 
10 *65:50 *4518:B1 43.4064 
11 *65:40 *4516:C 38 
12 *65:38 *4515:B 47.3007 
13 *65:32 *4525:B1 42.7229 
*END

*D_NET *66 0.00487359
*CONN
*I *4549:A2 I *D sky130_fd_sc_hd__a22o_1
*I *4552:A2 I *D sky130_fd_sc_hd__a31o_1
*I *4565:B1 I *D sky130_fd_sc_hd__a221o_1
*I *4515:Y O *D sky130_fd_sc_hd__nor2_2
*CAP
1 *4549:A2 0.000704248
2 *4552:A2 0.000157874
3 *4565:B1 0.000179557
4 *4515:Y 0.00013317
5 *66:23 0.00131197
6 *66:8 0.000762578
7 *4549:A2 *98:10 7.24365e-05
8 *4549:A2 *159:10 2.72055e-05
9 *4549:A2 *185:74 0
10 *4549:A2 *228:14 5.3304e-05
11 *4552:A2 *4554:A 2.90712e-05
12 *4552:A2 *99:37 0.000181098
13 *4565:B1 *4565:C1 1.37232e-05
14 *4565:B1 *4566:B1 1.68611e-05
15 *4565:B1 *148:58 0.000163352
16 *4565:B1 *179:71 0
17 *4565:B1 *227:43 0
18 *66:8 *186:18 0.000288279
19 *66:8 *222:8 0.000525406
20 *66:23 *148:58 0.000228042
21 *66:23 *154:47 0
22 *66:23 *159:10 2.5415e-05
23 *66:23 *169:22 0
24 *66:23 *227:43 0
*RES
1 *4515:Y *66:8 43.8621 
2 *66:8 *4565:B1 41.3764 
3 *66:8 *66:23 7.54 
4 *66:23 *4552:A2 40.9 
5 *66:23 *4549:A2 49.745 
*END

*D_NET *67 0.00075439
*CONN
*I *4517:B1 I *D sky130_fd_sc_hd__o31a_1
*I *4516:X O *D sky130_fd_sc_hd__or4b_1
*CAP
1 *4517:B1 0
2 *4516:X 0.000172944
3 *67:10 0.000172944
4 *67:10 *4633:A 0.000178517
5 *67:10 *130:26 2.02517e-05
6 *67:10 *130:28 6.82611e-05
7 *67:10 *239:8 9.17998e-05
8 *65:50 *67:10 4.96717e-05
*RES
1 *4516:X *67:10 27.4743 
2 *67:10 *4517:B1 23 
*END

*D_NET *68 0.000395898
*CONN
*I *4521:A2 I *D sky130_fd_sc_hd__a31o_1
*I *4517:X O *D sky130_fd_sc_hd__o31a_1
*CAP
1 *4521:A2 6.47971e-05
2 *4517:X 6.47971e-05
3 *4521:A2 *4521:B1 5.50049e-05
4 *4521:A2 *130:26 0.000181925
5 *64:8 *4521:A2 2.93747e-05
*RES
1 *4517:X *4521:A2 48.0507 
*END

*D_NET *69 0.000631877
*CONN
*I *4520:B I *D sky130_fd_sc_hd__nand3_1
*I *4518:X O *D sky130_fd_sc_hd__a211o_1
*CAP
1 *4520:B 0
2 *4518:X 0.000186972
3 *69:10 0.000186972
4 *69:10 *151:42 0.00010018
5 *69:10 *158:148 1.61968e-05
6 *69:10 *192:44 0.000135547
7 *69:10 *241:14 6.00922e-06
*RES
1 *4518:X *69:10 41.3557 
2 *69:10 *4520:B 38 
*END

*D_NET *70 0.000609371
*CONN
*I *4520:C I *D sky130_fd_sc_hd__nand3_1
*I *4519:X O *D sky130_fd_sc_hd__a21o_1
*CAP
1 *4520:C 3.92716e-05
2 *4519:X 0.000111703
3 *70:8 0.000150975
4 *4520:C *4500:B 4.96717e-05
5 *4520:C *193:21 9.5877e-05
6 *70:8 *241:14 0.000161873
*RES
1 *4519:X *70:8 40.2579 
2 *70:8 *4520:C 39.0979 
*END

*D_NET *71 0.00152137
*CONN
*I *4521:A3 I *D sky130_fd_sc_hd__a31o_1
*I *4520:Y O *D sky130_fd_sc_hd__nand3_1
*CAP
1 *4521:A3 1.80182e-05
2 *4520:Y 0.000467154
3 *71:8 0.000485172
4 *4521:A3 *130:26 2.93845e-05
5 *71:8 *119:8 0.000140958
6 *71:8 *158:148 0.000264028
7 *71:8 *160:96 6.16439e-05
8 *71:8 *241:14 0
9 *64:8 *4521:A3 5.50106e-05
*RES
1 *4520:Y *71:8 48.3571 
2 *71:8 *4521:A3 38.6214 
*END

*D_NET *72 0.00365856
*CONN
*I *4532:A I *D sky130_fd_sc_hd__nand3_1
*I *4521:X O *D sky130_fd_sc_hd__a31o_1
*CAP
1 *4532:A 0
2 *4521:X 4.57773e-05
3 *72:20 0.000863737
4 *72:8 0.000909514
5 *72:8 *130:26 5.50106e-05
6 *72:20 *4532:B 5.90675e-06
7 *72:20 *83:8 2.93747e-05
8 *72:20 *109:18 0.000511497
9 *72:20 *117:8 0.000152553
10 *72:20 *119:8 0.000551872
11 *72:20 *158:148 0.000186248
12 *72:20 *162:77 0.000289229
13 *72:20 *169:107 3.28227e-05
14 *72:20 *242:23 4.6318e-06
15 *72:20 *242:34 2.03909e-05
*RES
1 *4521:X *72:8 38.6214 
2 *72:8 *72:20 36.9261 
3 *72:20 *4532:A 23 
*END

*D_NET *73 0.000349365
*CONN
*I *4561:A2 I *D sky130_fd_sc_hd__a221o_1
*I *4522:Y O *D sky130_fd_sc_hd__nor2_1
*CAP
1 *4561:A2 0.000102298
2 *4522:Y 0.000102298
3 *4561:A2 *4522:B 1.14154e-05
4 *4561:A2 *4561:A1 4.00259e-06
5 *4561:A2 *196:6 2.4754e-05
6 *4561:A2 *196:16 0.000104597
*RES
1 *4522:Y *4561:A2 48.4546 
*END

*D_NET *74 0.000438973
*CONN
*I *4532:B I *D sky130_fd_sc_hd__nand3_1
*I *4523:X O *D sky130_fd_sc_hd__or4_1
*CAP
1 *4532:B 0.000164603
2 *4523:X 0.000164603
3 *4532:B *4532:C 1.38616e-05
4 *4532:B *83:8 3.49873e-05
5 *4532:B *109:18 5.50106e-05
6 *72:20 *4532:B 5.90675e-06
*RES
1 *4523:X *4532:B 49.045 
*END

*D_NET *75 0.00362767
*CONN
*I *4594:A I *D sky130_fd_sc_hd__nor2_1
*I *4529:B I *D sky130_fd_sc_hd__and3_1
*I *4536:A3 I *D sky130_fd_sc_hd__a31oi_1
*I *4524:X O *D sky130_fd_sc_hd__a21o_1
*CAP
1 *4594:A 0.00036106
2 *4529:B 0.000222924
3 *4536:A3 5.37471e-05
4 *4524:X 0.000667974
5 *75:10 0.000344676
6 *75:8 0.00109704
7 *4529:B *4536:A1 5.41385e-05
8 *4529:B *86:10 0.000143655
9 *4536:A3 *97:12 0
10 *4536:A3 *222:39 3.3123e-05
11 *4536:A3 *222:45 1.83564e-05
12 *4594:A *97:12 0
13 *4594:A *222:39 1.12487e-05
14 *75:8 *222:35 9.67842e-05
15 *75:8 *229:17 0.000488166
16 *75:10 *222:39 3.47776e-05
*RES
1 *4524:X *75:8 48.6264 
2 *75:8 *75:10 1.20143 
3 *75:10 *4536:A3 39.2014 
4 *75:10 *4529:B 41.48 
5 *75:8 *4594:A 44.1936 
*END

*D_NET *76 0.00185419
*CONN
*I *4529:C I *D sky130_fd_sc_hd__and3_1
*I *4525:X O *D sky130_fd_sc_hd__a211o_1
*CAP
1 *4529:C 1.99371e-05
2 *4525:X 0.000391612
3 *76:8 0.000411549
4 *4529:C *4536:B1 9.70259e-06
5 *76:8 *96:14 0.000366768
6 *76:8 *97:12 2.54046e-05
7 *76:8 *105:10 8.05011e-05
8 *76:8 *158:130 0.000548711
9 *76:8 *191:46 0
*RES
1 *4525:X *76:8 47.6529 
2 *76:8 *4529:C 38.2279 
*END

*D_NET *77 0.0023993
*CONN
*I *4531:B1 I *D sky130_fd_sc_hd__o21ai_1
*I *4547:A1 I *D sky130_fd_sc_hd__a31o_1
*I *4560:C1 I *D sky130_fd_sc_hd__o211a_1
*I *4526:Y O *D sky130_fd_sc_hd__nor2_1
*CAP
1 *4531:B1 0
2 *4547:A1 0
3 *4560:C1 0
4 *4526:Y 2.22747e-05
5 *77:22 0.000223126
6 *77:14 0.000653719
7 *77:6 0.000452868
8 *77:6 *4539:B1 3.22879e-05
9 *77:6 *99:37 8.6949e-05
10 *77:14 *4539:B1 0.000162964
11 *77:14 *4547:A2 0.000133309
12 *77:14 *4547:B1 3.83498e-05
13 *77:14 *99:37 0.000308039
14 *77:22 *4547:B1 5.50049e-05
15 *77:22 *4560:B1 6.07611e-06
16 *77:22 *158:130 0
17 *77:22 *180:38 0.000224336
*RES
1 *4526:Y *77:6 24.0979 
2 *77:6 *77:14 8.65857 
3 *77:14 *77:22 35.0129 
4 *77:22 *4560:C1 23 
5 *77:14 *4547:A1 23 
6 *77:6 *4531:B1 23 
*END

*D_NET *78 0.00079504
*CONN
*I *4570:B1 I *D sky130_fd_sc_hd__a22o_1
*I *4527:Y O *D sky130_fd_sc_hd__nand2_1
*CAP
1 *4570:B1 0
2 *4527:Y 0.000320218
3 *78:10 0.000320218
4 *78:10 *4482:B 3.31683e-05
5 *78:10 *4505:A1 0
6 *78:10 *4570:B2 6.07611e-06
7 *78:10 *118:8 0
8 *78:10 *175:23 2.93845e-05
9 *78:10 *199:10 6.07611e-06
10 *78:10 *234:26 6.46633e-05
11 *78:10 *244:10 1.52362e-05
*RES
1 *4527:Y *78:10 43.2614 
2 *78:10 *4570:B1 38 
*END

*D_NET *79 0.000514368
*CONN
*I *4530:B1 I *D sky130_fd_sc_hd__o211a_1
*I *4528:X O *D sky130_fd_sc_hd__a21o_1
*CAP
1 *4530:B1 0
2 *4528:X 0.000138803
3 *79:10 0.000138803
4 *79:10 *4528:B1 9.84851e-05
5 *79:10 *175:65 7.03766e-05
6 *79:10 *179:25 6.79006e-05
*RES
1 *4528:X *79:10 41.0036 
2 *79:10 *4530:B1 38 
*END

*D_NET *80 0.00117676
*CONN
*I *4531:A1 I *D sky130_fd_sc_hd__o21ai_1
*I *4529:X O *D sky130_fd_sc_hd__and3_1
*CAP
1 *4531:A1 0
2 *4529:X 0.000375753
3 *80:10 0.000375753
4 *80:10 *4536:B1 0.000139754
5 *80:10 *86:10 0.000146786
6 *80:10 *175:65 0.000138718
*RES
1 *4529:X *80:10 43.8621 
2 *80:10 *4531:A1 38 
*END

*D_NET *81 0.00421097
*CONN
*I *4531:A2 I *D sky130_fd_sc_hd__o21ai_1
*I *4530:X O *D sky130_fd_sc_hd__o211a_1
*CAP
1 *4531:A2 0
2 *4530:X 6.81629e-05
3 *81:14 0.00110796
4 *81:8 0.00117612
5 *81:8 *184:23 5.70419e-05
6 *81:14 *99:37 5.3304e-05
7 *81:14 *112:20 4.36401e-06
8 *81:14 *155:45 0
9 *81:14 *175:65 0.00174402
10 *81:14 *193:12 0
*RES
1 *4530:X *81:8 39.0979 
2 *81:8 *81:14 39.36 
3 *81:14 *4531:A2 23 
*END

*D_NET *82 0.00156486
*CONN
*I *4532:C I *D sky130_fd_sc_hd__nand3_1
*I *4531:Y O *D sky130_fd_sc_hd__o21ai_1
*CAP
1 *4532:C 0.000443631
2 *4531:Y 4.9965e-05
3 *82:8 0.000493596
4 *4532:C *169:113 0.000349076
5 *82:8 *169:117 0.000141879
6 *82:8 *175:65 7.28526e-05
7 *4532:B *4532:C 1.38616e-05
*RES
1 *4531:Y *82:8 39.9057 
2 *82:8 *4532:C 48.6471 
*END

*D_NET *83 0.00192279
*CONN
*I *4534:A2 I *D sky130_fd_sc_hd__a22o_1
*I *4532:Y O *D sky130_fd_sc_hd__nand3_1
*CAP
1 *4534:A2 0.000321608
2 *4532:Y 0.00017672
3 *83:8 0.000498328
4 *4534:A2 *84:14 0.000192681
5 *4534:A2 *170:44 0.000300955
6 *4534:A2 *229:30 5.0135e-05
7 *4534:A2 *242:34 0
8 *83:8 *4523:B 5.50049e-05
9 *83:8 *109:18 0.00012104
10 *83:8 *169:107 0.000141954
11 *4532:B *83:8 3.49873e-05
12 *72:20 *83:8 2.93747e-05
*RES
1 *4532:Y *83:8 42.4329 
2 *83:8 *4534:A2 46.2443 
*END

*D_NET *84 0.00263595
*CONN
*I *4549:B1 I *D sky130_fd_sc_hd__a22o_1
*I *4534:B1 I *D sky130_fd_sc_hd__a22o_1
*I *4533:X O *D sky130_fd_sc_hd__a21o_1
*CAP
1 *4549:B1 0.00057131
2 *4534:B1 0
3 *4533:X 0
4 *84:14 0.000305682
5 *84:4 0.000876992
6 *4549:B1 *179:112 0.000311554
7 *4549:B1 *222:35 0.000241734
8 *4549:B1 *228:14 5.25848e-05
9 *4549:B1 *228:22 2.93845e-05
10 *84:14 *162:77 0
11 *84:14 *170:35 6.07611e-06
12 *84:14 *179:112 4.79544e-05
13 *4534:A2 *84:14 0.000192681
*RES
1 *4533:X *84:4 23 
2 *84:4 *84:14 36.67 
3 *84:14 *4534:B1 23 
4 *84:4 *4549:B1 35.0557 
*END

*D_NET *85 0.000227495
*CONN
*I *4548:A2 I *D sky130_fd_sc_hd__a22o_1
*I *4535:Y O *D sky130_fd_sc_hd__nand2_1
*CAP
1 *4548:A2 0
2 *4535:Y 0.000113747
3 *85:8 0.000113747
4 *85:8 *4548:B2 0
5 *85:8 *97:12 0
*RES
1 *4535:Y *85:8 39.9057 
2 *85:8 *4548:A2 38 
*END

*D_NET *86 0.00159557
*CONN
*I *4539:A1 I *D sky130_fd_sc_hd__o21a_1
*I *4536:Y O *D sky130_fd_sc_hd__a31oi_1
*CAP
1 *4539:A1 0
2 *4536:Y 0.000366167
3 *86:10 0.000366167
4 *86:10 *4536:B1 0.000263524
5 *86:10 *4593:A 6.25829e-05
6 *86:10 *160:68 0.000191157
7 *86:10 *175:65 5.55278e-05
8 *4529:B *86:10 0.000143655
9 *80:10 *86:10 0.000146786
*RES
1 *4536:Y *86:10 47.1764 
2 *86:10 *4539:A1 38 
*END

*D_NET *87 0.000851522
*CONN
*I *4538:B2 I *D sky130_fd_sc_hd__a32o_1
*I *4537:X O *D sky130_fd_sc_hd__a211o_1
*CAP
1 *4538:B2 0
2 *4537:X 0.000228957
3 *87:10 0.000228957
4 *87:10 *4528:B1 0.00010018
5 *87:10 *179:25 0.000174427
6 *87:10 *244:35 0.000107021
7 *87:10 *244:61 1.19796e-05
*RES
1 *4537:X *87:10 43.8207 
2 *87:10 *4538:B2 38 
*END

*D_NET *88 0.00404815
*CONN
*I *4539:A2 I *D sky130_fd_sc_hd__o21a_1
*I *4538:X O *D sky130_fd_sc_hd__a32o_1
*CAP
1 *4539:A2 0
2 *4538:X 0.000149223
3 *88:12 0.000704769
4 *88:8 0.000853991
5 *88:8 *193:12 0.000180218
6 *88:12 *4513:A2 3.14237e-05
7 *88:12 *4563:B 1.37246e-05
8 *88:12 *130:26 2.33476e-05
9 *88:12 *160:68 0.000646726
10 *88:12 *175:65 2.86716e-05
11 *88:12 *179:25 0.000734297
12 *88:12 *185:33 8.62876e-05
13 *88:12 *186:24 4.7568e-05
14 *88:12 *186:62 1.86176e-05
15 *88:12 *190:26 0.000502594
16 *88:12 *191:46 0
17 *88:12 *228:62 2.33476e-05
18 *4525:B1 *88:12 3.34818e-06
*RES
1 *4538:X *88:8 40.0507 
2 *88:8 *88:12 35.9214 
3 *88:12 *4539:A2 23 
*END

*D_NET *89 0.000475464
*CONN
*I *4547:B1 I *D sky130_fd_sc_hd__a31o_1
*I *4539:X O *D sky130_fd_sc_hd__o21a_1
*CAP
1 *4547:B1 0.00016768
2 *4539:X 0.00016768
3 *4547:B1 *4547:A2 4.67488e-05
4 *77:14 *4547:B1 3.83498e-05
5 *77:22 *4547:B1 5.50049e-05
*RES
1 *4539:X *4547:B1 49.0036 
*END

*D_NET *90 0.00203099
*CONN
*I *4550:C I *D sky130_fd_sc_hd__and3_4
*I *4545:A3 I *D sky130_fd_sc_hd__a31o_1
*I *4541:C_N I *D sky130_fd_sc_hd__or3b_1
*I *4540:Y O *D sky130_fd_sc_hd__nand2_1
*CAP
1 *4550:C 8.08234e-05
2 *4545:A3 0
3 *4541:C_N 0
4 *4540:Y 8.85311e-05
5 *90:18 9.17263e-05
6 *90:12 0.000161984
7 *90:10 0.000151081
8 *90:8 8.85311e-05
9 *4550:C *158:112 0.0002575
10 *4550:C *180:25 0.000354317
11 *4550:C *231:39 1.46286e-05
12 *90:8 *228:86 0
13 *90:8 *231:60 0.000138727
14 *90:12 *4545:A2 1.57571e-05
15 *90:12 *158:112 5.50106e-05
16 *90:12 *180:25 0.000181125
17 *90:12 *228:86 2.02872e-05
18 *90:18 *228:76 9.88678e-05
19 *90:18 *231:60 7.75329e-06
20 *90:18 *244:116 0.000224345
*RES
1 *4540:Y *90:8 39.9057 
2 *90:8 *90:10 15 
3 *90:10 *90:12 2.05071 
4 *90:12 *90:18 32.9621 
5 *90:18 *4541:C_N 23 
6 *90:12 *4545:A3 23 
7 *90:10 *4550:C 26.9771 
*END

*D_NET *91 0.00105471
*CONN
*I *4559:A1 I *D sky130_fd_sc_hd__a21o_1
*I *4546:A3 I *D sky130_fd_sc_hd__a31o_1
*I *4541:X O *D sky130_fd_sc_hd__or3b_1
*CAP
1 *4559:A1 6.93947e-05
2 *4546:A3 0
3 *4541:X 0.00035163
4 *91:8 0.000282235
5 *4559:A1 *96:8 9.84851e-05
6 *91:8 *4546:A1 1.59094e-05
7 *91:8 *4559:A2 5.3304e-05
8 *91:8 *96:8 8.95826e-05
9 *91:8 *190:37 9.41704e-05
*RES
1 *4541:X *91:8 27.93 
2 *91:8 *4546:A3 23 
3 *4541:X *4559:A1 47.0979 
*END

*D_NET *92 0.000957285
*CONN
*I *4543:B1 I *D sky130_fd_sc_hd__a31o_1
*I *4542:X O *D sky130_fd_sc_hd__o211a_1
*CAP
1 *4543:B1 0
2 *4542:X 0.000266252
3 *92:10 0.000266252
4 *92:10 *168:26 0.000272377
5 *92:10 *180:63 0
6 *92:10 *230:10 1.14452e-05
7 *92:10 *230:14 0.000140958
*RES
1 *4542:X *92:10 42.9093 
2 *92:10 *4543:B1 38 
*END

*D_NET *93 0.00979627
*CONN
*I *4544:B I *D sky130_fd_sc_hd__nand2_1
*I *4543:X O *D sky130_fd_sc_hd__a31o_1
*CAP
1 *4544:B 0
2 *4543:X 0.000238924
3 *93:14 0.00309403
4 *93:10 0.00309403
5 *93:8 0.000238924
6 *93:8 *147:57 1.14452e-05
7 *93:8 *158:62 0.000142808
8 *93:8 *158:64 0.000296017
9 *93:8 *230:10 0
10 *93:14 *4481:B 5.50106e-05
11 *93:14 *148:48 0.000702459
12 *93:14 *148:73 0.000822816
13 *93:14 *158:86 3.58084e-06
14 *93:14 *158:100 0.000770833
15 *93:14 *174:10 0.000302817
16 *93:14 *178:6 2.25809e-05
*RES
1 *4543:X *93:8 43.7793 
2 *93:8 *93:10 15 
3 *93:10 *93:14 45.7786 
4 *93:14 *4544:B 23 
*END

*D_NET *94 0.0012243
*CONN
*I *4547:A2 I *D sky130_fd_sc_hd__a31o_1
*I *4544:Y O *D sky130_fd_sc_hd__nand2_1
*CAP
1 *4547:A2 6.39298e-05
2 *4544:Y 0.000207789
3 *94:10 0.000271719
4 *94:10 *96:14 0.000314329
5 *94:10 *158:100 7.53384e-06
6 *94:10 *158:102 3.22879e-05
7 *94:10 *191:46 0.000146652
8 *4547:B1 *4547:A2 4.67488e-05
9 *77:14 *4547:A2 0.000133309
*RES
1 *4544:Y *94:10 42.9921 
2 *94:10 *4547:A2 39.595 
*END

*D_NET *95 0.000589454
*CONN
*I *4546:B1 I *D sky130_fd_sc_hd__a31o_1
*I *4545:X O *D sky130_fd_sc_hd__a31o_1
*CAP
1 *4546:B1 0
2 *4545:X 0.000264815
3 *95:10 0.000264815
4 *95:10 *180:8 4.21594e-06
5 *95:10 *180:25 5.56092e-05
*RES
1 *4545:X *95:10 41.9564 
2 *95:10 *4546:B1 38 
*END

*D_NET *96 0.00495411
*CONN
*I *4547:A3 I *D sky130_fd_sc_hd__a31o_1
*I *4546:X O *D sky130_fd_sc_hd__a31o_1
*CAP
1 *4547:A3 0
2 *4546:X 0.000605251
3 *96:14 0.000192911
4 *96:8 0.000798162
5 *96:8 *4546:A1 0
6 *96:8 *4559:A2 4.96717e-05
7 *96:8 *108:8 0.0010623
8 *96:8 *158:102 9.5877e-05
9 *96:8 *158:104 0.00123149
10 *96:8 *190:37 3.22964e-05
11 *96:14 *191:46 1.69771e-05
12 *4559:A1 *96:8 9.84851e-05
13 *76:8 *96:14 0.000366768
14 *91:8 *96:8 8.95826e-05
15 *94:10 *96:14 0.000314329
*RES
1 *4546:X *96:8 43.1757 
2 *96:8 *96:14 35.075 
3 *96:14 *4547:A3 23 
*END

*D_NET *97 0.00241067
*CONN
*I *4548:B1 I *D sky130_fd_sc_hd__a22o_1
*I *4547:X O *D sky130_fd_sc_hd__a31o_1
*CAP
1 *4548:B1 0
2 *4547:X 0
3 *97:12 0.000765122
4 *97:6 0.000765122
5 *97:12 *4548:B2 5.70419e-05
6 *97:12 *158:130 0
7 *97:12 *191:46 0.000797979
8 *4536:A3 *97:12 0
9 *4594:A *97:12 0
10 *76:8 *97:12 2.54046e-05
11 *85:8 *97:12 0
*RES
1 *4547:X *97:6 38 
2 *97:6 *97:12 31.3021 
3 *97:12 *4548:B1 23 
*END

*D_NET *98 0.00095443
*CONN
*I *4555:A2 I *D sky130_fd_sc_hd__a211o_1
*I *4549:X O *D sky130_fd_sc_hd__a22o_1
*CAP
1 *4555:A2 0
2 *4549:X 0.000397948
3 *98:10 0.000397948
4 *98:10 *159:10 1.14452e-05
5 *98:10 *169:22 6.18132e-05
6 *98:10 *169:33 1.28404e-05
7 *98:10 *222:65 0
8 *98:10 *228:14 0
9 *4549:A2 *98:10 7.24365e-05
*RES
1 *4549:X *98:10 44.7736 
2 *98:10 *4555:A2 38 
*END

*D_NET *99 0.0119202
*CONN
*I *4554:A I *D sky130_fd_sc_hd__nor2_1
*I *4552:A3 I *D sky130_fd_sc_hd__a31o_1
*I *4563:B I *D sky130_fd_sc_hd__nand2b_1
*I *4550:X O *D sky130_fd_sc_hd__and3_4
*CAP
1 *4554:A 6.70449e-05
2 *4552:A3 0
3 *4563:B 0.000406142
4 *4550:X 0.00116175
5 *99:37 0.0020672
6 *99:33 0.00206917
7 *99:12 0.000475159
8 *99:10 0.00116175
9 *4554:A *4552:B1 0.00010018
10 *4554:A *4555:B1 0
11 *4554:A *103:8 0.000232004
12 *4563:B *4525:A2 0.000103633
13 *4563:B *4525:C1 6.12397e-05
14 *4563:B *186:62 5.3304e-05
15 *4563:B *190:22 0.000304109
16 *4563:B *190:26 0.000392333
17 *4563:B *191:46 0.000204655
18 *99:10 *180:25 0.000146822
19 *99:10 *180:38 5.48354e-05
20 *99:10 *222:45 0.000713493
21 *99:10 *227:57 0.000140958
22 *99:10 *227:65 2.42041e-05
23 *99:10 *231:39 7.9567e-06
24 *99:33 *190:26 0.000139657
25 *99:33 *191:46 6.22475e-05
26 *99:37 *4555:B1 9.75779e-05
27 *99:37 *103:8 2.9938e-05
28 *99:37 *155:45 0.000103637
29 *99:37 *185:68 0.000293749
30 *99:37 *231:18 0.000559366
31 *99:37 *242:8 1.39431e-05
32 *4552:A2 *4554:A 2.90712e-05
33 *4552:A2 *99:37 0.000181098
34 *77:6 *99:37 8.6949e-05
35 *77:14 *99:37 0.000308039
36 *81:14 *99:37 5.3304e-05
37 *88:12 *4563:B 1.37246e-05
*RES
1 *4550:X *99:10 40.9386 
2 *99:10 *99:12 15 
3 *99:12 *4563:B 49.3566 
4 *99:12 *99:33 16.9057 
5 *99:33 *99:37 37.8036 
6 *99:37 *4552:A3 23 
7 *99:37 *4554:A 26.0243 
*END

*D_NET *100 0.000522071
*CONN
*I *4552:B1 I *D sky130_fd_sc_hd__a31o_1
*I *4551:X O *D sky130_fd_sc_hd__and4_1
*CAP
1 *4552:B1 0.0001206
2 *4551:X 0.0001206
3 *4552:B1 *4554:B 0.000143655
4 *4552:B1 *103:8 2.4754e-05
5 *4552:B1 *185:81 1.22822e-05
6 *4554:A *4552:B1 0.00010018
*RES
1 *4551:X *4552:B1 49.48 
*END

*D_NET *101 0.000259346
*CONN
*I *4555:B1 I *D sky130_fd_sc_hd__a211o_1
*I *4552:X O *D sky130_fd_sc_hd__a31o_1
*CAP
1 *4555:B1 5.15256e-05
2 *4552:X 5.15256e-05
3 *4555:B1 *103:8 4.07999e-05
4 *4555:B1 *185:68 1.79175e-05
5 *4554:A *4555:B1 0
6 *99:37 *4555:B1 9.75779e-05
*RES
1 *4552:X *4555:B1 47.595 
*END

*D_NET *102 0.00586509
*CONN
*I *4586:A1 I *D sky130_fd_sc_hd__o22a_1
*I *4554:B I *D sky130_fd_sc_hd__nor2_1
*I *4553:X O *D sky130_fd_sc_hd__a311o_1
*CAP
1 *4586:A1 0
2 *4554:B 0.000542603
3 *4553:X 0
4 *102:23 0.00121798
5 *102:4 0.00176058
6 *4554:B *4551:A 0.000446275
7 *4554:B *4551:C 4.94192e-05
8 *4554:B *185:81 0.000111697
9 *102:23 *4551:A 0.000137651
10 *102:23 *4553:B1 6.53382e-05
11 *102:23 *126:28 3.92407e-05
12 *102:23 *165:6 0.00117232
13 *102:23 *165:14 8.67228e-06
14 *102:23 *243:10 0.000169665
15 *4552:B1 *4554:B 0.000143655
*RES
1 *4553:X *102:4 23 
2 *102:4 *4554:B 33.5436 
3 *102:4 *102:23 49.5543 
4 *102:23 *4586:A1 23 
*END

*D_NET *103 0.000926436
*CONN
*I *4555:C1 I *D sky130_fd_sc_hd__a211o_1
*I *4554:Y O *D sky130_fd_sc_hd__nor2_1
*CAP
1 *4555:C1 0
2 *4554:Y 9.36602e-05
3 *103:8 9.36602e-05
4 *103:8 *185:68 0.000238623
5 *103:8 *185:81 0.000172996
6 *4552:B1 *103:8 2.4754e-05
7 *4554:A *103:8 0.000232004
8 *4555:B1 *103:8 4.07999e-05
9 *99:37 *103:8 2.9938e-05
*RES
1 *4554:Y *103:8 27.93 
2 *103:8 *4555:C1 23 
*END

*D_NET *104 0.00120865
*CONN
*I *4561:B1 I *D sky130_fd_sc_hd__a221o_1
*I *4555:X O *D sky130_fd_sc_hd__a211o_1
*CAP
1 *4561:B1 0
2 *4555:X 0.00031494
3 *104:10 0.00031494
4 *104:10 *185:68 0.000350606
5 *104:10 *228:22 0.000114083
6 *62:10 *104:10 0.000114083
*RES
1 *4555:X *104:10 43.51 
2 *104:10 *4561:B1 38 
*END

*D_NET *105 0.0015715
*CONN
*I *4560:A2 I *D sky130_fd_sc_hd__o211a_1
*I *4556:X O *D sky130_fd_sc_hd__o32a_1
*CAP
1 *4560:A2 0
2 *4556:X 0.000444269
3 *105:10 0.000444269
4 *105:10 *4525:C1 2.5415e-05
5 *105:10 *4560:B1 0.000135557
6 *105:10 *4564:C1 2.64616e-05
7 *105:10 *150:12 0
8 *105:10 *158:130 0.000187996
9 *105:10 *186:62 2.24608e-05
10 *105:10 *191:46 0
11 *105:10 *227:65 0.000204573
12 *76:8 *105:10 8.05011e-05
*RES
1 *4556:X *105:10 47.1143 
2 *105:10 *4560:A2 38 
*END

*D_NET *106 0.00163091
*CONN
*I *4584:S I *D sky130_fd_sc_hd__mux2_4
*I *4558:C I *D sky130_fd_sc_hd__or3_1
*I *4557:X O *D sky130_fd_sc_hd__and3_4
*CAP
1 *4584:S 0.000208662
2 *4558:C 0
3 *4557:X 0.000287724
4 *106:12 5.03899e-05
5 *106:6 0.000546776
6 *4584:S *4557:B 4.84318e-06
7 *4584:S *192:14 7.44257e-05
8 *4584:S *223:82 1.54983e-05
9 *4584:S *223:103 3.32677e-05
10 *106:6 *4557:B 6.99589e-05
11 *106:12 *223:103 0.000169683
12 *106:12 *244:116 0.000169683
*RES
1 *4557:X *106:6 27.4329 
2 *106:6 *106:12 32.2579 
3 *106:12 *4558:C 23 
4 *106:6 *4584:S 26.5007 
*END

*D_NET *107 0.00432283
*CONN
*I *4559:A2 I *D sky130_fd_sc_hd__a21o_1
*I *4564:A2 I *D sky130_fd_sc_hd__o211ai_1
*I *4558:X O *D sky130_fd_sc_hd__or3_1
*CAP
1 *4559:A2 0.000227319
2 *4564:A2 0.000685767
3 *4558:X 8.81542e-05
4 *107:10 0.00100124
5 *4559:A2 *4541:A 0.000471907
6 *4559:A2 *190:37 2.32101e-05
7 *4559:A2 *231:69 0.000391663
8 *4559:A2 *231:75 8.72173e-05
9 *4564:A2 *176:20 0.00101803
10 *107:10 *4541:A 8.62876e-05
11 *107:10 *228:70 5.50106e-05
12 *107:10 *231:75 8.4047e-05
13 *91:8 *4559:A2 5.3304e-05
14 *96:8 *4559:A2 4.96717e-05
*RES
1 *4558:X *107:10 39.8229 
2 *107:10 *4564:A2 49.1029 
3 *107:10 *4559:A2 46.0786 
*END

*D_NET *108 0.00281705
*CONN
*I *4560:B1 I *D sky130_fd_sc_hd__o211a_1
*I *4559:X O *D sky130_fd_sc_hd__a21o_1
*CAP
1 *4560:B1 6.74414e-05
2 *4559:X 0.000682277
3 *108:8 0.000749718
4 *4560:B1 *180:38 4.99753e-06
5 *4560:B1 *227:65 0.000108681
6 *77:22 *4560:B1 6.07611e-06
7 *96:8 *108:8 0.0010623
8 *105:10 *4560:B1 0.000135557
*RES
1 *4559:X *108:8 49.5793 
2 *108:8 *4560:B1 39.9057 
*END

*D_NET *109 0.00692088
*CONN
*I *4561:C1 I *D sky130_fd_sc_hd__a221o_1
*I *4560:X O *D sky130_fd_sc_hd__o211a_1
*CAP
1 *4561:C1 0
2 *4560:X 0.00107503
3 *109:18 0.000541208
4 *109:6 0.00161624
5 *109:6 *231:37 0.00150539
6 *109:18 *4481:B 1.12487e-05
7 *109:18 *4523:B 0.000375898
8 *109:18 *4523:D 0.00018282
9 *109:18 *4568:A1 4.76829e-05
10 *109:18 *117:8 1.01436e-05
11 *109:18 *196:16 0.000748
12 *109:18 *231:18 9.176e-05
13 *109:18 *242:23 2.79064e-05
14 *4532:B *109:18 5.50106e-05
15 *72:20 *109:18 0.000511497
16 *83:8 *109:18 0.00012104
*RES
1 *4560:X *109:6 39.82 
2 *109:6 *109:18 49.7821 
3 *109:18 *4561:C1 23 
*END

*D_NET *110 0.00228158
*CONN
*I *4562:B1 I *D sky130_fd_sc_hd__a22o_1
*I *4561:X O *D sky130_fd_sc_hd__a221o_1
*CAP
1 *4562:B1 0
2 *4561:X 0
3 *110:10 0.000447626
4 *110:6 0.000447626
5 *110:10 *4511:A1 0.000641572
6 *110:10 *4562:A1 0.000263228
7 *110:10 *4562:B2 0.000107548
8 *110:10 *170:10 6.33511e-05
9 *110:10 *222:65 0.000168754
10 *110:10 *228:14 0.000141879
*RES
1 *4561:X *110:6 38 
2 *110:6 *110:10 28.5264 
3 *110:10 *4562:B1 23 
*END

*D_NET *111 0.000487962
*CONN
*I *4564:B1 I *D sky130_fd_sc_hd__o211ai_1
*I *4563:Y O *D sky130_fd_sc_hd__nand2b_1
*CAP
1 *4564:B1 0
2 *4563:Y 0.000196615
3 *111:10 0.000196615
4 *111:10 *4525:A2 0
5 *111:10 *112:14 9.33529e-06
6 *111:10 *190:12 4.48671e-05
7 *111:10 *190:22 4.05309e-05
*RES
1 *4563:Y *111:10 41.48 
2 *111:10 *4564:B1 38 
*END

*D_NET *112 0.00712619
*CONN
*I *4566:A2 I *D sky130_fd_sc_hd__a31o_1
*I *4564:Y O *D sky130_fd_sc_hd__o211ai_1
*CAP
1 *4566:A2 0
2 *4564:Y 0.000654195
3 *112:22 0.000782251
4 *112:20 0.000811412
5 *112:14 0.000683356
6 *112:14 *4525:A2 2.05503e-05
7 *112:14 *4564:C1 5.67058e-05
8 *112:14 *130:12 0
9 *112:14 *186:62 0.000112459
10 *112:14 *228:62 0.000513974
11 *112:22 *4566:A3 2.93747e-05
12 *112:22 *114:6 0.000126046
13 *112:22 *150:27 0.001035
14 *112:22 *179:71 0.000994134
15 *112:22 *228:52 0.00054504
16 *112:22 *241:27 0.000747994
17 *81:14 *112:20 4.36401e-06
18 *111:10 *112:14 9.33529e-06
*RES
1 *4564:Y *112:14 48.8017 
2 *112:14 *112:20 23.3211 
3 *112:20 *112:22 28.2543 
4 *112:22 *4566:A2 23 
*END

*D_NET *113 0.000449943
*CONN
*I *4566:A3 I *D sky130_fd_sc_hd__a31o_1
*I *4565:X O *D sky130_fd_sc_hd__a221o_1
*CAP
1 *4566:A3 0.000142619
2 *4565:X 0.000142619
3 *4566:A3 *4566:B1 0.00010018
4 *4566:A3 *179:71 3.51496e-05
5 *112:22 *4566:A3 2.93747e-05
*RES
1 *4565:X *4566:A3 49.0243 
*END

*D_NET *114 0.00333774
*CONN
*I *4573:B1 I *D sky130_fd_sc_hd__a22o_1
*I *4566:X O *D sky130_fd_sc_hd__a31o_1
*CAP
1 *4573:B1 0
2 *4566:X 0.000940142
3 *114:12 5.24059e-05
4 *114:6 0.000992548
5 *114:6 *150:27 0.000139352
6 *114:6 *179:71 0.000865411
7 *114:12 *4572:A1 0.000110913
8 *114:12 *243:71 0.000110922
9 *112:22 *114:6 0.000126046
*RES
1 *4566:X *114:6 36.9614 
2 *114:6 *114:12 31.5536 
3 *114:12 *4573:B1 23 
*END

*D_NET *115 0.00318052
*CONN
*I *4571:A2_N I *D sky130_fd_sc_hd__a2bb2o_1
*I *4567:X O *D sky130_fd_sc_hd__o32a_1
*CAP
1 *4571:A2_N 0
2 *4567:X 0.000398743
3 *115:8 0.000398743
4 *115:8 *148:23 0.0008601
5 *115:8 *160:35 4.2573e-05
6 *115:8 *160:37 0.00115909
7 *115:8 *160:55 0.000181919
8 *65:32 *115:8 0.000139357
*RES
1 *4567:X *115:8 40.7936 
2 *115:8 *4571:A2_N 23 
*END

*D_NET *116 0.000140026
*CONN
*I *4569:B1 I *D sky130_fd_sc_hd__a2bb2o_1
*I *4568:X O *D sky130_fd_sc_hd__a31o_1
*CAP
1 *4569:B1 1.50079e-05
2 *4568:X 1.50079e-05
3 *4569:B1 *4568:A1 5.50049e-05
4 *4569:B1 *4569:A2_N 5.50049e-05
*RES
1 *4568:X *4569:B1 46.6214 
*END

*D_NET *117 0.000855774
*CONN
*I *4572:A2 I *D sky130_fd_sc_hd__o31a_1
*I *4569:X O *D sky130_fd_sc_hd__a2bb2o_1
*CAP
1 *4572:A2 6.34583e-05
2 *4569:X 0.000154115
3 *117:8 0.000217573
4 *4572:A2 *4572:A1 2.30292e-05
5 *4572:A2 *186:22 9.8971e-06
6 *117:8 *4481:B 0.000113153
7 *117:8 *148:88 0
8 *117:8 *158:148 0.000111852
9 *117:8 *243:71 0
10 *72:20 *117:8 0.000152553
11 *109:18 *117:8 1.01436e-05
*RES
1 *4569:X *117:8 42.3707 
2 *117:8 *4572:A2 39.0979 
*END

*D_NET *118 0.00728882
*CONN
*I *4571:B1 I *D sky130_fd_sc_hd__a2bb2o_1
*I *4570:X O *D sky130_fd_sc_hd__a22o_1
*CAP
1 *4571:B1 0
2 *4570:X 0.000165952
3 *118:12 0.00127776
4 *118:10 0.00127776
5 *118:8 0.000165952
6 *118:8 *4505:A1 6.07611e-06
7 *118:8 *147:22 1.01436e-05
8 *118:8 *164:29 3.72639e-05
9 *118:8 *189:14 0
10 *118:8 *199:10 6.58373e-05
11 *118:8 *236:40 0.000215782
12 *118:12 *4480:B 0.000308028
13 *118:12 *4491:A 0.000227208
14 *118:12 *4496:B 0.000436756
15 *118:12 *148:23 0.000193739
16 *118:12 *160:35 0.00176274
17 *118:12 *173:8 0.000269769
18 *118:12 *184:10 2.18506e-05
19 *118:12 *185:27 6.27443e-05
20 *118:12 *230:16 0.000291047
21 *118:12 *230:22 0.000184651
22 *118:12 *230:68 0.000307775
23 *78:10 *118:8 0
*RES
1 *4570:X *118:8 42.0186 
2 *118:8 *118:10 15 
3 *118:10 *118:12 38.7357 
4 *118:12 *4571:B1 23 
*END

*D_NET *119 0.00167896
*CONN
*I *4572:A3 I *D sky130_fd_sc_hd__o31a_1
*I *4571:X O *D sky130_fd_sc_hd__a2bb2o_1
*CAP
1 *4572:A3 0
2 *4571:X 0.000402095
3 *119:8 0.000402095
4 *119:8 *158:148 0
5 *119:8 *162:77 4.6318e-06
6 *119:8 *241:14 9.32613e-05
7 *119:8 *241:27 8.40478e-05
8 *71:8 *119:8 0.000140958
9 *72:20 *119:8 0.000551872
*RES
1 *4571:X *119:8 48.3571 
2 *119:8 *4572:A3 38 
*END

*D_NET *120 0.000110811
*CONN
*I *4573:B2 I *D sky130_fd_sc_hd__a22o_1
*I *4572:X O *D sky130_fd_sc_hd__o31a_1
*CAP
1 *4573:B2 2.79004e-05
2 *4572:X 2.79004e-05
3 *4573:B2 *4572:A1 5.50106e-05
*RES
1 *4572:X *4573:B2 46.6214 
*END

*D_NET *121 0.00106443
*CONN
*I *4575:B I *D sky130_fd_sc_hd__nand2_1
*I *4585:A1 I *D sky130_fd_sc_hd__mux2_1
*I *4574:Y O *D sky130_fd_sc_hd__nor2_1
*CAP
1 *4575:B 0.000147864
2 *4585:A1 0.00013864
3 *4574:Y 7.90837e-05
4 *121:12 0.00031086
5 *121:8 0.000103439
6 *4575:B *4585:S 0
7 *4585:A1 *4585:S 2.93747e-05
8 *121:8 *4581:A3 0
9 *121:8 *168:12 0.000196549
10 *121:8 *199:62 5.86165e-05
*RES
1 *4574:Y *121:8 40.61 
2 *121:8 *121:12 15.6214 
3 *121:12 *4585:A1 25.0714 
4 *121:12 *4575:B 25.5479 
*END

*D_NET *122 0.00120981
*CONN
*I *4581:A2 I *D sky130_fd_sc_hd__a32o_1
*I *4575:Y O *D sky130_fd_sc_hd__nand2_1
*CAP
1 *4581:A2 0
2 *4575:Y 0.00025059
3 *122:8 0.00025059
4 *122:8 *4581:A3 0.000542104
5 *122:8 *127:10 0
6 *122:8 *168:12 0
7 *122:8 *168:81 0.000166522
*RES
1 *4575:Y *122:8 45.1879 
2 *122:8 *4581:A2 38 
*END

*D_NET *123 0.00231963
*CONN
*I *4581:A3 I *D sky130_fd_sc_hd__a32o_1
*I *4576:X O *D sky130_fd_sc_hd__a31o_1
*CAP
1 *4581:A3 0.000271427
2 *4576:X 0.000142004
3 *123:8 0.00041343
4 *4581:A3 *127:10 0
5 *4581:A3 *154:25 0.000780568
6 *4581:A3 *168:12 0
7 *4581:A3 *199:62 8.51329e-05
8 *123:8 *4576:A2 7.73389e-05
9 *123:8 *234:12 4.04598e-06
10 *123:8 *234:18 3.58084e-06
11 *121:8 *4581:A3 0
12 *122:8 *4581:A3 0.000542104
*RES
1 *4576:X *123:8 40.0507 
2 *123:8 *4581:A3 48.3571 
*END

*D_NET *124 0.0016176
*CONN
*I *4587:A3 I *D sky130_fd_sc_hd__a31o_1
*I *4578:A2 I *D sky130_fd_sc_hd__a21o_1
*I *4577:X O *D sky130_fd_sc_hd__or2_1
*CAP
1 *4587:A3 8.61173e-05
2 *4578:A2 0
3 *4577:X 0.000398409
4 *124:10 0.000484526
5 *4587:A3 *126:10 3.72639e-05
6 *4587:A3 *128:12 0.000140949
7 *4587:A3 *162:12 0.000191157
8 *4587:A3 *243:16 0
9 *124:10 *4580:A1 8.76288e-05
10 *124:10 *4585:A0 3.56537e-05
11 *124:10 *4585:S 5.70419e-05
12 *124:10 *126:10 9.88575e-05
13 *124:10 *243:16 0
*RES
1 *4577:X *124:10 46.6379 
2 *124:10 *4578:A2 38 
3 *124:10 *4587:A3 40.9621 
*END

*D_NET *125 0.000249902
*CONN
*I *4581:B1 I *D sky130_fd_sc_hd__a32o_1
*I *4578:X O *D sky130_fd_sc_hd__a21o_1
*CAP
1 *4581:B1 3.28122e-05
2 *4578:X 3.28122e-05
3 *4581:B1 *162:8 6.49619e-05
4 *4581:B1 *227:12 0.000119315
*RES
1 *4578:X *4581:B1 47.3361 
*END

*D_NET *126 0.00216409
*CONN
*I *4586:A2 I *D sky130_fd_sc_hd__o22a_1
*I *4580:A2 I *D sky130_fd_sc_hd__a21oi_1
*I *4579:X O *D sky130_fd_sc_hd__and4_1
*CAP
1 *4586:A2 0
2 *4580:A2 0
3 *4579:X 0.000670963
4 *126:28 0.000143901
5 *126:10 0.000527062
6 *126:10 *4580:A1 1.14452e-05
7 *126:10 *4587:A1 3.7122e-06
8 *126:10 *4587:A2 0.000144352
9 *126:10 *128:12 8.4047e-05
10 *126:10 *155:65 8.67053e-05
11 *126:10 *155:74 0.000160182
12 *126:28 *131:12 4.23714e-05
13 *126:28 *133:10 5.67058e-05
14 *126:28 *243:10 1.89075e-05
15 *126:28 *243:16 3.83778e-05
16 *4587:A3 *126:10 3.72639e-05
17 *102:23 *126:28 3.92407e-05
18 *124:10 *126:10 9.88575e-05
*RES
1 *4579:X *126:10 47.6321 
2 *126:10 *4580:A2 38 
3 *4579:X *126:28 40.8793 
4 *126:28 *4586:A2 38 
*END

*D_NET *127 0.00058072
*CONN
*I *4581:B2 I *D sky130_fd_sc_hd__a32o_1
*I *4580:Y O *D sky130_fd_sc_hd__a21oi_1
*CAP
1 *4581:B2 0
2 *4580:Y 0.000172838
3 *127:10 0.000172838
4 *127:10 *155:65 9.27814e-05
5 *127:10 *168:12 5.94125e-05
6 *127:10 *168:18 1.24376e-05
7 *127:10 *168:81 7.04119e-05
8 *4581:A3 *127:10 0
9 *122:8 *127:10 0
*RES
1 *4580:Y *127:10 41.9357 
2 *127:10 *4581:B2 38 
*END

*D_NET *128 0.00347996
*CONN
*I *4583:S I *D sky130_fd_sc_hd__mux2_1
*I *4581:X O *D sky130_fd_sc_hd__a32o_1
*CAP
1 *4583:S 0
2 *4581:X 0.000368423
3 *128:12 0.000623993
4 *128:8 0.000992416
5 *128:8 *164:14 0.000527112
6 *128:12 *155:74 2.84912e-05
7 *128:12 *155:85 0.000216843
8 *128:12 *162:12 0.000497684
9 *128:12 *219:14 0
10 *4587:A3 *128:12 0.000140949
11 *126:10 *128:12 8.4047e-05
*RES
1 *4581:X *128:8 43.8621 
2 *128:8 *128:12 31.3436 
3 *128:12 *4583:S 23 
*END

*D_NET *129 0.00229586
*CONN
*I *4583:A0 I *D sky130_fd_sc_hd__mux2_1
*I *4582:Y O *D sky130_fd_sc_hd__nor2_1
*CAP
1 *4583:A0 0
2 *4582:Y 0.00103737
3 *129:12 5.94633e-05
4 *129:6 0.00109683
5 *129:6 *180:93 1.59094e-05
6 *129:12 *162:12 8.62876e-05
7 *129:12 *219:14 0
*RES
1 *4582:Y *129:6 36.485 
2 *129:6 *129:12 31.2014 
3 *129:12 *4583:A0 23 
*END

*D_NET *130 0.0143197
*CONN
*I *4585:S I *D sky130_fd_sc_hd__mux2_1
*I *4584:X O *D sky130_fd_sc_hd__mux2_4
*CAP
1 *4585:S 0.000239604
2 *4584:X 0.00130088
3 *130:28 0.00242797
4 *130:26 0.00310705
5 *130:12 0.00221956
6 *4585:S *4577:B 1.38616e-05
7 *4585:S *131:8 9.74722e-05
8 *4585:S *183:12 1.24376e-05
9 *4585:S *230:93 7.98328e-05
10 *130:12 *228:62 0
11 *130:12 *231:75 0
12 *130:26 *160:68 2.11066e-05
13 *130:26 *222:24 9.59329e-05
14 *130:26 *226:46 5.50106e-05
15 *130:28 *4516:B 3.53051e-05
16 *130:28 *4577:B 5.7011e-05
17 *130:28 *4633:A 0.000178517
18 *130:28 *4638:A 9.84851e-05
19 *130:28 *183:12 1.41129e-05
20 *130:28 *183:18 0.00188804
21 *130:28 *222:24 0.000859282
22 *130:28 *230:93 0.000354122
23 *4521:A2 *130:26 0.000181925
24 *4521:A3 *130:26 2.93845e-05
25 *4575:B *4585:S 0
26 *4585:A1 *4585:S 2.93747e-05
27 *63:18 *130:12 0.000200604
28 *64:8 *130:26 0.000454373
29 *65:50 *130:28 4.4553e-05
30 *67:10 *130:26 2.02517e-05
31 *67:10 *130:28 6.82611e-05
32 *72:8 *130:26 5.50106e-05
33 *88:12 *130:26 2.33476e-05
34 *112:14 *130:12 0
35 *124:10 *4585:S 5.70419e-05
*RES
1 *4584:X *130:12 49.5541 
2 *130:12 *130:26 42.4611 
3 *130:26 *130:28 49.6936 
4 *130:28 *4585:S 28.9036 
*END

*D_NET *131 0.00294213
*CONN
*I *4586:B1 I *D sky130_fd_sc_hd__o22a_1
*I *4585:X O *D sky130_fd_sc_hd__mux2_1
*CAP
1 *4586:B1 0
2 *4585:X 0.000161695
3 *131:12 0.000823786
4 *131:8 0.00098548
5 *131:8 *183:12 8.264e-05
6 *131:8 *183:18 0.000228909
7 *131:8 *243:46 0.000272377
8 *131:12 *171:17 0
9 *131:12 *171:21 0
10 *131:12 *230:93 0.000114083
11 *131:12 *243:16 0
12 *131:12 *243:106 0.000133316
13 *4585:S *131:8 9.74722e-05
14 *126:28 *131:12 4.23714e-05
*RES
1 *4585:X *131:8 43.3857 
2 *131:8 *131:12 29.5829 
3 *131:12 *4586:B1 23 
*END

*D_NET *132 0.000886239
*CONN
*I *4590:A2 I *D sky130_fd_sc_hd__a22o_1
*I *4586:X O *D sky130_fd_sc_hd__o22a_1
*CAP
1 *4590:A2 0
2 *4586:X 0.000149456
3 *132:6 0.000149456
4 *132:6 *154:34 0.000445374
5 *132:6 *169:87 0.000141954
*RES
1 *4586:X *132:6 27.9093 
2 *132:6 *4590:A2 23 
*END

*D_NET *133 0.00193072
*CONN
*I *4588:B1 I *D sky130_fd_sc_hd__a31o_1
*I *4587:X O *D sky130_fd_sc_hd__a31o_1
*CAP
1 *4588:B1 0
2 *4587:X 0.000304612
3 *133:10 0.000304612
4 *133:10 *4579:B 5.3304e-05
5 *133:10 *4579:C 0.00045872
6 *133:10 *4587:A2 0.000358425
7 *133:10 *148:73 0.000304742
8 *133:10 *171:34 8.96023e-05
9 *126:28 *133:10 5.67058e-05
*RES
1 *4587:X *133:10 33.1914 
2 *133:10 *4588:B1 23 
*END

*D_NET *134 0.000200331
*CONN
*I *4590:B1 I *D sky130_fd_sc_hd__a22o_1
*I *4588:X O *D sky130_fd_sc_hd__a31o_1
*CAP
1 *4590:B1 0
2 *4588:X 7.23553e-05
3 *134:8 7.23553e-05
4 *134:8 *135:10 5.56203e-05
5 *134:8 *169:87 0
*RES
1 *4588:X *134:8 39.5536 
2 *134:8 *4590:B1 38 
*END

*D_NET *135 0.000899067
*CONN
*I *4590:B2 I *D sky130_fd_sc_hd__a22o_1
*I *4589:X O *D sky130_fd_sc_hd__o31a_1
*CAP
1 *4590:B2 0
2 *4589:X 0.000234131
3 *135:10 0.000234131
4 *135:10 *148:73 0.000225393
5 *135:10 *171:17 0
6 *135:10 *238:10 1.01436e-05
7 *135:10 *238:16 0.000139647
8 *134:8 *135:10 5.56203e-05
*RES
1 *4589:X *135:10 42.4329 
2 *135:10 *4590:B2 38 
*END

*D_NET *136 0.00335839
*CONN
*I *4592:S I *D sky130_fd_sc_hd__mux2_1
*I *4590:X O *D sky130_fd_sc_hd__a22o_1
*CAP
1 *4592:S 0
2 *4590:X 0.000180808
3 *136:14 0.000687964
4 *136:8 0.000868772
5 *136:8 *154:34 0.000156058
6 *136:14 *4592:A1 2.93845e-05
7 *136:14 *162:117 0.000186026
8 *136:14 *171:17 0
9 *136:14 *215:12 0
10 *136:14 *216:6 5.50106e-05
11 *136:14 *238:10 0.000425511
12 *136:14 *238:58 0.000768854
*RES
1 *4590:X *136:8 41.0036 
2 *136:8 *136:14 32.4414 
3 *136:14 *4592:S 23 
*END

*D_NET *137 0.00100699
*CONN
*I *4592:A1 I *D sky130_fd_sc_hd__mux2_1
*I *4591:Y O *D sky130_fd_sc_hd__a21oi_1
*CAP
1 *4592:A1 0.000159609
2 *4591:Y 0.000183841
3 *137:8 0.000343449
4 *4592:A1 *162:117 5.50106e-05
5 *4592:A1 *216:6 8.48502e-06
6 *4592:A1 *238:58 0.000227208
7 *137:8 *147:10 0
8 *137:8 *166:21 0
9 *137:8 *218:12 0
10 *137:8 *238:58 0
11 *136:14 *4592:A1 2.93845e-05
*RES
1 *4591:Y *137:8 40.9621 
2 *137:8 *4592:A1 41.48 
*END

*D_NET *138 0.000265208
*CONN
*I *4594:B I *D sky130_fd_sc_hd__nor2_1
*I *4593:X O *D sky130_fd_sc_hd__or4_1
*CAP
1 *4594:B 6.52157e-05
2 *4593:X 6.52157e-05
3 *4594:B *4593:A 3.45967e-05
4 *4594:B *221:6 0.00010018
*RES
1 *4593:X *4594:B 47.9471 
*END

*D_NET *139 0.00205834
*CONN
*I *4598:A I *D sky130_fd_sc_hd__nor2_1
*I *4600:B I *D sky130_fd_sc_hd__nor2_1
*I *4599:B I *D sky130_fd_sc_hd__and2_4
*I *4596:X O *D sky130_fd_sc_hd__and3_4
*CAP
1 *4598:A 0.000119257
2 *4600:B 0
3 *4599:B 0
4 *4596:X 0.000106402
5 *139:20 0.000110378
6 *139:14 0.000357849
7 *139:8 0.00047313
8 *4598:A *203:20 0
9 *4598:A *213:16 1.19796e-05
10 *4598:A *213:23 3.71198e-05
11 *139:8 *205:16 9.91165e-05
12 *139:14 *203:20 0
13 *139:14 *206:47 9.67842e-05
14 *139:14 *211:21 0.000146245
15 *139:14 *213:16 0.000155739
16 *139:20 *211:21 0.000245827
17 *139:20 *213:16 9.85086e-05
*RES
1 *4596:X *139:8 40.0507 
2 *139:8 *139:14 22.2293 
3 *139:14 *139:20 33.3143 
4 *139:20 *4599:B 23 
5 *139:14 *4600:B 23 
6 *139:8 *4598:A 40.2579 
*END

*D_NET *140 0.000377066
*CONN
*I *4598:B I *D sky130_fd_sc_hd__nor2_1
*I *4597:Y O *D sky130_fd_sc_hd__a21oi_1
*CAP
1 *4598:B 0.00012636
2 *4597:Y 0.00012636
3 *4598:B *4597:B1 0.00010309
4 *48:10 *4598:B 2.1257e-05
*RES
1 *4597:Y *4598:B 49.045 
*END

*D_NET *141 0.0033015
*CONN
*I *4601:A I *D sky130_fd_sc_hd__nor2_1
*I *4602:B I *D sky130_fd_sc_hd__xor2_1
*I *4604:A2 I *D sky130_fd_sc_hd__a21oi_1
*I *4603:C I *D sky130_fd_sc_hd__and3_4
*I *4599:X O *D sky130_fd_sc_hd__and2_4
*CAP
1 *4601:A 0.000205232
2 *4602:B 0
3 *4604:A2 6.80678e-05
4 *4603:C 0.000195589
5 *4599:X 0
6 *141:10 0.000547048
7 *141:8 0.000992581
8 *141:4 0.00091442
9 *4601:A *206:16 2.18409e-05
10 *4601:A *206:20 0.000148634
11 *4603:C *4605:A 3.34247e-05
12 *4603:C *143:12 5.15812e-05
13 *4603:C *207:31 0
14 *4603:C *208:12 5.70419e-05
15 *4603:C *208:41 0
16 *141:8 *4626:A 0
17 *141:8 *211:21 0
18 *141:10 *207:31 0
19 *50:8 *141:8 6.18235e-05
20 *50:8 *141:10 4.21594e-06
*RES
1 *4599:X *141:4 23 
2 *141:4 *141:8 28.8786 
3 *141:8 *141:10 5.42714 
4 *141:10 *4603:C 42.4121 
5 *141:10 *4604:A2 39.0979 
6 *141:8 *4602:B 38 
7 *141:4 *4601:A 26.9771 
*END

*D_NET *142 0.000740025
*CONN
*I *4601:B I *D sky130_fd_sc_hd__nor2_1
*I *4600:Y O *D sky130_fd_sc_hd__nor2_1
*CAP
1 *4601:B 0
2 *4600:Y 0.000243757
3 *142:10 0.000243757
4 *142:10 *206:47 9.62764e-05
5 *142:10 *213:16 7.81176e-05
6 *3:15 *142:10 7.81176e-05
*RES
1 *4600:Y *142:10 42.3086 
2 *142:10 *4601:B 38 
*END

*D_NET *143 0.00225365
*CONN
*I *4605:A I *D sky130_fd_sc_hd__nor2_1
*I *4607:B I *D sky130_fd_sc_hd__or2_1
*I *4606:B I *D sky130_fd_sc_hd__nand2_1
*I *4603:X O *D sky130_fd_sc_hd__and3_4
*CAP
1 *4605:A 0.000277372
2 *4607:B 0
3 *4606:B 0.000122268
4 *4603:X 0
5 *143:12 0.000686975
6 *143:4 0.000842078
7 *4605:A *207:31 5.3304e-05
8 *4605:A *208:8 4.38068e-06
9 *4605:A *208:10 5.14746e-06
10 *4605:A *208:12 5.14746e-06
11 *4606:B *4607:A 0.000143655
12 *4606:B *146:10 1.94693e-05
13 *143:12 *161:12 0
14 *143:12 *208:12 8.85299e-06
15 *143:12 *208:41 0
16 *4603:C *4605:A 3.34247e-05
17 *4603:C *143:12 5.15812e-05
*RES
1 *4603:X *143:4 23 
2 *143:4 *143:12 40.0464 
3 *143:12 *4606:B 26.0243 
4 *143:12 *4607:B 23 
5 *143:4 *4605:A 27.205 
*END

*D_NET *144 0.000547598
*CONN
*I *4605:B I *D sky130_fd_sc_hd__nor2_1
*I *4604:Y O *D sky130_fd_sc_hd__a21oi_1
*CAP
1 *4605:B 0
2 *4604:Y 0.0002422
3 *144:10 0.0002422
4 *144:10 *207:16 1.41203e-05
5 *144:10 *208:41 4.90787e-05
6 *144:10 *212:10 0
7 *144:10 *212:14 0
*RES
1 *4604:Y *144:10 41.8321 
2 *144:10 *4605:B 38 
*END

*D_NET *145 0.000821143
*CONN
*I *4609:B I *D sky130_fd_sc_hd__xnor2_1
*I *4608:A I *D sky130_fd_sc_hd__and2_1
*I *4606:Y O *D sky130_fd_sc_hd__nand2_1
*CAP
1 *4609:B 3.01523e-05
2 *4608:A 0
3 *4606:Y 0.000102294
4 *145:12 0.0001077
5 *145:8 0.000179841
6 *4609:B *4623:CLK 0.00010018
7 *145:8 *146:10 4.23817e-05
8 *145:12 *4623:CLK 0.000226306
9 *52:6 *145:12 3.22879e-05
*RES
1 *4606:Y *145:8 39.9057 
2 *145:8 *145:12 17.5271 
3 *145:12 *4608:A 23 
4 *145:12 *4609:B 24.0979 
*END

*D_NET *146 0.000404996
*CONN
*I *4608:B I *D sky130_fd_sc_hd__and2_1
*I *4607:X O *D sky130_fd_sc_hd__or2_1
*CAP
1 *4608:B 0
2 *4607:X 0.000171573
3 *146:10 0.000171573
4 *4606:B *146:10 1.94693e-05
5 *145:8 *146:10 4.23817e-05
*RES
1 *4607:X *146:10 40.8793 
2 *146:10 *4608:B 38 
*END

*D_NET *147 0.0170113
*CONN
*I *4551:A I *D sky130_fd_sc_hd__and4_1
*I *4459:A I *D sky130_fd_sc_hd__or2_1
*I *4638:A I *D sky130_fd_sc_hd__clkbuf_2
*I *4490:B I *D sky130_fd_sc_hd__and2b_4
*I *4496:A I *D sky130_fd_sc_hd__nand2_2
*I *4454:X O *D sky130_fd_sc_hd__mux2_8
*CAP
1 *4551:A 0.000130444
2 *4459:A 0.000127633
3 *4638:A 2.01521e-05
4 *4490:B 0.000342266
5 *4496:A 0
6 *4454:X 0.00130198
7 *147:76 0.000567709
8 *147:57 0.000951068
9 *147:22 0.000550058
10 *147:14 0.000514472
11 *147:12 0.00148192
12 *147:10 0.00130188
13 *147:6 0.00179464
14 *4459:A *4493:B 9.67842e-05
15 *4459:A *4565:B2 0
16 *4459:A *165:24 5.67058e-05
17 *4459:A *178:42 0.000221406
18 *4459:A *186:10 7.73389e-05
19 *4459:A *227:26 5.27028e-05
20 *4490:B *4506:B 0.00011548
21 *4490:B *4574:B 0
22 *4490:B *189:14 5.3304e-05
23 *4490:B *189:34 0.000798447
24 *4490:B *199:10 4.34876e-05
25 *4490:B *199:56 0.000305037
26 *4490:B *230:68 1.03836e-05
27 *4490:B *230:81 0.000523716
28 *4551:A *4551:C 0.000252161
29 *4551:A *4553:A3 4.41507e-05
30 *4551:A *165:14 8.06804e-06
31 *4638:A *183:18 9.84851e-05
32 *147:6 *215:6 0.000394988
33 *147:10 *4473:A 0.00020879
34 *147:10 *4582:A 0
35 *147:10 *160:16 3.35885e-05
36 *147:10 *166:21 0
37 *147:10 *238:10 0.000425511
38 *147:10 *238:58 0.000605511
39 *147:12 *160:16 6.37326e-05
40 *147:12 *164:29 6.43149e-05
41 *147:12 *178:59 0.000149045
42 *147:12 *238:10 7.70737e-05
43 *147:12 *238:16 0.000244517
44 *147:14 *164:29 8.1292e-05
45 *147:14 *169:87 0
46 *147:14 *178:59 5.31444e-05
47 *147:14 *236:40 0.000105072
48 *147:22 *4496:B 5.67058e-05
49 *147:22 *169:87 0
50 *147:22 *189:34 5.90675e-06
51 *147:22 *199:10 2.80512e-05
52 *147:22 *230:68 7.88926e-05
53 *147:22 *236:40 9.95114e-05
54 *147:22 *244:10 0
55 *147:57 *158:64 3.47879e-05
56 *147:57 *227:26 0.00103239
57 *147:57 *230:10 2.01531e-05
58 *147:57 *230:14 2.76611e-06
59 *147:76 *154:34 0.0001164
60 *147:76 *175:98 0.000110913
61 *147:76 *231:10 0.000263657
62 *147:76 *236:70 0.000108681
63 *4554:B *4551:A 0.000446275
64 *93:8 *147:57 1.14452e-05
65 *102:23 *4551:A 0.000137651
66 *118:8 *147:22 1.01436e-05
67 *130:28 *4638:A 9.84851e-05
68 *137:8 *147:10 0
*RES
1 *4454:X *147:6 46.49 
2 *147:6 *147:10 28.8786 
3 *147:10 *147:12 8.59643 
4 *147:12 *147:14 6.48357 
5 *147:14 *147:22 20.0336 
6 *147:22 *4496:A 23 
7 *147:22 *4490:B 36.6714 
8 *147:14 *4638:A 39.0979 
9 *147:12 *147:57 42.7807 
10 *147:57 *4459:A 42.93 
11 *147:10 *147:76 36.9393 
12 *147:76 *4551:A 44.3386 
*END

*D_NET *148 0.0225865
*CONN
*I *4513:A1 I *D sky130_fd_sc_hd__a311o_1
*I *4512:A1 I *D sky130_fd_sc_hd__a21oi_1
*I *4481:A I *D sky130_fd_sc_hd__nand2_1
*I *4579:A I *D sky130_fd_sc_hd__and4_1
*I *4565:A1 I *D sky130_fd_sc_hd__a221o_1
*I *4495:A I *D sky130_fd_sc_hd__nor2_1
*I *4567:A1 I *D sky130_fd_sc_hd__o32a_1
*I *4455:Y O *D sky130_fd_sc_hd__inv_4
*CAP
1 *4513:A1 0.000287207
2 *4512:A1 0
3 *4481:A 0
4 *4579:A 0
5 *4565:A1 0
6 *4495:A 0
7 *4567:A1 2.34823e-05
8 *4455:Y 0.000329517
9 *148:101 0.000733305
10 *148:88 0.000456315
11 *148:73 0.00127381
12 *148:58 0.000261316
13 *148:48 0.00190027
14 *148:42 0.0012839
15 *148:33 0.000418888
16 *148:23 0.00155912
17 *148:12 0.00097331
18 *148:8 0.00104765
19 *4513:A1 *4513:A3 1.59094e-05
20 *4513:A1 *160:55 6.21385e-05
21 *148:8 *4567:B1 0
22 *148:8 *223:25 0.000131009
23 *148:8 *226:10 0
24 *148:8 *244:82 2.54046e-05
25 *148:12 *4567:A2 2.64616e-05
26 *148:12 *4567:B1 5.50049e-05
27 *148:12 *4567:B2 1.21972e-05
28 *148:23 *4567:A2 2.64616e-05
29 *148:23 *160:35 5.43562e-05
30 *148:23 *185:27 0.00176886
31 *148:33 *179:59 0.000310647
32 *148:33 *179:63 0.000321581
33 *148:33 *193:41 4.334e-05
34 *148:33 *226:46 8.62783e-05
35 *148:33 *239:14 0.000101004
36 *148:42 *179:63 0.000696537
37 *148:42 *179:78 0.000336072
38 *148:42 *179:99 5.01986e-05
39 *148:42 *230:22 0.000161121
40 *148:42 *230:35 0.000829192
41 *148:42 *239:14 2.8682e-05
42 *148:48 *158:86 1.21972e-05
43 *148:48 *178:6 0.00124975
44 *148:58 *154:51 0
45 *148:58 *169:22 0
46 *148:58 *178:14 0.000416469
47 *148:73 *4579:C 4.46462e-05
48 *148:73 *158:86 0.000213184
49 *148:73 *171:34 0.000228909
50 *148:73 *236:63 0.000231821
51 *148:73 *238:16 9.50292e-05
52 *148:73 *238:24 6.83551e-05
53 *148:88 *4481:B 3.21327e-05
54 *148:88 *4569:A2_N 4.05745e-05
55 *148:88 *4569:B2 0.00026025
56 *148:88 *179:99 0.000136486
57 *148:88 *230:35 0.000127263
58 *148:88 *243:71 0.000135547
59 *148:101 *4567:B1 0
60 *148:101 *4567:B2 7.13024e-05
61 *148:101 *227:75 0
62 *4565:B1 *148:58 0.000163352
63 *63:18 *4513:A1 7.01569e-06
64 *63:18 *148:101 3.7122e-06
65 *65:32 *148:12 1.21972e-05
66 *65:32 *148:23 8.48502e-06
67 *66:23 *148:58 0.000228042
68 *93:14 *148:48 0.000702459
69 *93:14 *148:73 0.000822816
70 *115:8 *148:23 0.0008601
71 *117:8 *148:88 0
72 *118:12 *148:23 0.000193739
73 *133:10 *148:73 0.000304742
74 *135:10 *148:73 0.000225393
*RES
1 *4455:Y *148:8 45.1879 
2 *148:8 *148:12 18.9564 
3 *148:12 *4567:A1 23.4971 
4 *148:12 *148:23 38.9664 
5 *148:23 *148:33 39.0521 
6 *148:33 *4495:A 38 
7 *148:23 *148:42 14.935 
8 *148:42 *148:48 29.935 
9 *148:48 *148:58 36.8979 
10 *148:58 *4565:A1 23 
11 *148:48 *148:73 30.3671 
12 *148:73 *4579:A 23 
13 *148:42 *148:88 37.7679 
14 *148:88 *4481:A 38 
15 *148:8 *148:101 22.4986 
16 *148:101 *4512:A1 23 
17 *148:101 *4513:A1 26.9979 
*END

*D_NET *149 0.000677941
*CONN
*I *4637:A I *D sky130_fd_sc_hd__buf_1
*I *4456:X O *D sky130_fd_sc_hd__mux2_1
*CAP
1 *4637:A 0.000191151
2 *4456:X 9.40737e-05
3 *149:8 0.000285225
4 *4637:A *246:12 5.67058e-05
5 *149:8 *204:54 1.01436e-05
6 *149:8 *256:12 4.06408e-05
*RES
1 *4456:X *149:8 39.9057 
2 *149:8 *4637:A 41.48 
*END

*D_NET *150 0.00545199
*CONN
*I *4485:A I *D sky130_fd_sc_hd__nand2_2
*I *4573:A1 I *D sky130_fd_sc_hd__a22o_1
*I *4525:A1 I *D sky130_fd_sc_hd__a211o_1
*I *4457:Y O *D sky130_fd_sc_hd__clkinv_1
*CAP
1 *4485:A 9.09749e-05
2 *4573:A1 3.79836e-05
3 *4525:A1 0
4 *4457:Y 0
5 *150:27 0.00119709
6 *150:12 0.000351904
7 *150:4 0.00142004
8 *4485:A *170:44 0.000249909
9 *4485:A *196:33 1.12487e-05
10 *4485:A *229:55 1.14452e-05
11 *4485:A *243:71 0.000129953
12 *4573:A1 *4573:A2 5.50049e-05
13 *4573:A1 *186:22 9.67842e-05
14 *150:12 *4525:C1 3.3746e-05
15 *150:12 *4556:A3 8.06804e-06
16 *150:12 *4556:B1 0.000136738
17 *150:12 *191:46 0.000134984
18 *150:12 *223:8 5.74317e-06
19 *150:12 *228:52 2.45549e-06
20 *150:12 *244:61 1.01436e-05
21 *150:27 *4457:A 9.4713e-05
22 *150:27 *196:33 0.00011993
23 *150:27 *228:52 5.61255e-06
24 *150:27 *241:27 1.22822e-05
25 *150:27 *243:71 6.08751e-05
26 *105:10 *150:12 0
27 *112:22 *150:27 0.001035
28 *114:6 *150:27 0.000139352
*RES
1 *4457:Y *150:4 23 
2 *150:4 *150:12 34.9093 
3 *150:12 *4525:A1 23 
4 *150:4 *150:27 34.8443 
5 *150:27 *4573:A1 39.0979 
6 *150:27 *4485:A 41.6664 
*END

*D_NET *151 0.0140849
*CONN
*I *4556:A1 I *D sky130_fd_sc_hd__o32a_1
*I *4494:B2 I *D sky130_fd_sc_hd__o221a_1
*I *4518:A1 I *D sky130_fd_sc_hd__a211o_1
*I *4558:A I *D sky130_fd_sc_hd__or3_1
*I *4458:Y O *D sky130_fd_sc_hd__nor2_2
*CAP
1 *4556:A1 0
2 *4494:B2 0
3 *4518:A1 2.45153e-05
4 *4558:A 0
5 *4458:Y 0.000620454
6 *151:70 0.000595169
7 *151:57 0.000312807
8 *151:42 0.00121284
9 *151:32 0.0026675
10 *151:28 0.00146656
11 *151:10 0.000350705
12 *4518:A1 *4519:A2 0
13 *4518:A1 *179:42 3.91386e-05
14 *151:10 *4541:A 9.27917e-05
15 *151:10 *223:82 0.00053449
16 *151:10 *223:103 0.000194318
17 *151:10 *224:40 4.32475e-05
18 *151:10 *237:10 6.79006e-05
19 *151:10 *244:88 1.39317e-05
20 *151:10 *244:94 6.00827e-05
21 *151:10 *244:105 9.43568e-05
22 *151:28 *192:14 0.000104123
23 *151:28 *224:40 0.000100615
24 *151:28 *244:88 9.67842e-05
25 *151:32 *4486:B 5.47927e-05
26 *151:32 *179:6 0.000110389
27 *151:42 *175:48 7.44161e-06
28 *151:42 *179:6 9.84794e-05
29 *151:42 *179:42 0.00164845
30 *151:57 *172:16 7.84431e-05
31 *151:57 *172:29 0.000317131
32 *151:57 *175:48 7.06229e-05
33 *151:70 *4525:C1 0
34 *151:70 *4556:A2 1.38978e-05
35 *151:70 *179:12 7.8128e-05
36 *151:70 *191:35 0.000137249
37 *151:70 *223:14 0.000352603
38 *151:70 *224:20 0.000185573
39 *151:70 *227:65 9.28078e-06
40 *151:70 *227:75 0.000602371
41 *151:70 *228:70 0.000155786
42 *151:70 *244:35 1.52259e-05
43 *4518:B1 *4518:A1 2.02517e-05
44 *4518:B1 *151:57 0.000441065
45 *63:18 *151:70 1.34542e-05
46 *65:8 *151:70 0.000163361
47 *65:19 *151:70 0.000643822
48 *65:50 *151:57 7.461e-05
49 *69:10 *151:42 0.00010018
*RES
1 *4458:Y *151:10 49.3307 
2 *151:10 *4558:A 38 
3 *4458:Y *151:28 43.4686 
4 *151:28 *151:32 30.3907 
5 *151:32 *151:42 21.315 
6 *151:42 *4518:A1 23.8493 
7 *151:42 *151:57 39.0729 
8 *151:57 *4494:B2 23 
9 *151:32 *151:70 35.4036 
10 *151:70 *4556:A1 38 
*END

*D_NET *152 0.0004891
*CONN
*I *4630:A I *D sky130_fd_sc_hd__clkbuf_1
*I *4565:B2 I *D sky130_fd_sc_hd__a221o_1
*I *4459:X O *D sky130_fd_sc_hd__or2_1
*CAP
1 *4630:A 0
2 *4565:B2 6.87331e-05
3 *4459:X 4.04126e-05
4 *152:6 0.000109146
5 *4565:B2 *4565:C1 2.28308e-05
6 *4565:B2 *4566:B1 1.66607e-05
7 *4565:B2 *178:42 4.5051e-05
8 *4565:B2 *227:26 1.57571e-05
9 *152:6 *178:42 5.10805e-05
10 *152:6 *186:10 9.75779e-05
11 *152:6 *227:26 2.18506e-05
12 *4459:A *4565:B2 0
*RES
1 *4459:X *152:6 24.5743 
2 *152:6 *4565:B2 25.2423 
3 *152:6 *4630:A 23 
*END

*D_NET *153 0.000862545
*CONN
*I *4461:B1 I *D sky130_fd_sc_hd__o21ai_4
*I *4460:X O *D sky130_fd_sc_hd__or2_4
*CAP
1 *4461:B1 0
2 *4460:X 0.000360644
3 *153:10 0.000360644
4 *153:10 *255:10 0.000141258
*RES
1 *4460:X *153:10 45.4779 
2 *153:10 *4461:B1 38 
*END

*D_NET *154 0.0156963
*CONN
*I *4566:A1 I *D sky130_fd_sc_hd__a31o_1
*I *4509:A1 I *D sky130_fd_sc_hd__a21o_1
*I *4466:A I *D sky130_fd_sc_hd__nor2_1
*I *4586:B2 I *D sky130_fd_sc_hd__o22a_1
*I *4576:B1 I *D sky130_fd_sc_hd__a31o_1
*I *4461:Y O *D sky130_fd_sc_hd__o21ai_4
*CAP
1 *4566:A1 0
2 *4509:A1 0
3 *4466:A 6.77023e-05
4 *4586:B2 0
5 *4576:B1 0
6 *4461:Y 0.000677008
7 *154:64 0.000499821
8 *154:51 0.000826216
9 *154:47 0.00162727
10 *154:34 0.00128258
11 *154:25 0.00228503
12 *154:10 0.00153436
13 *154:8 0.000839985
14 *4466:A *227:43 6.00355e-05
15 *4466:A *231:10 0.000141954
16 *154:10 *168:12 0
17 *154:10 *199:62 2.76611e-06
18 *154:10 *234:12 0
19 *154:25 *4658:A 0
20 *154:25 *155:74 0
21 *154:25 *155:85 0
22 *154:25 *158:27 0
23 *154:25 *199:62 2.09183e-05
24 *154:25 *227:8 0.00030233
25 *154:25 *234:12 0
26 *154:25 *243:106 0.000182826
27 *154:34 *4661:A 0.000181125
28 *154:34 *158:58 0.000324123
29 *154:34 *169:87 2.4754e-05
30 *154:34 *231:10 0.00142797
31 *154:34 *243:106 2.63049e-05
32 *154:47 *186:10 3.47781e-05
33 *154:47 *227:43 0.00043778
34 *154:47 *236:8 1.37349e-05
35 *154:51 *4459:B 0
36 *154:51 *4488:A 0
37 *154:51 *4509:B1 0.00038571
38 *154:51 *4566:B1 0.000115382
39 *154:51 *186:10 0.000110913
40 *154:51 *227:43 8.4047e-05
41 *154:51 *230:44 0
42 *154:51 *236:8 3.72639e-05
43 *154:51 *243:52 0
44 *154:64 *169:22 0.000165593
45 *154:64 *178:14 0
46 *154:64 *186:18 0.000477628
47 *4581:A3 *154:25 0.000780568
48 *66:23 *154:47 0
49 *132:6 *154:34 0.000445374
50 *136:8 *154:34 0.000156058
51 *147:76 *154:34 0.0001164
52 *148:58 *154:51 0
*RES
1 *4461:Y *154:8 49.5793 
2 *154:8 *154:10 2.25786 
3 *154:10 *4576:B1 38 
4 *154:10 *154:25 43.2957 
5 *154:25 *4586:B2 23 
6 *154:25 *154:34 27.7986 
7 *154:34 *4466:A 25.0714 
8 *154:34 *154:47 21.8357 
9 *154:47 *154:51 31.3436 
10 *154:51 *4509:A1 23 
11 *154:47 *154:64 37.6436 
12 *154:64 *4566:A1 38 
*END

*D_NET *155 0.0261506
*CONN
*I *4467:A I *D sky130_fd_sc_hd__nand2_4
*I *4553:B1 I *D sky130_fd_sc_hd__a311o_1
*I *4587:B1 I *D sky130_fd_sc_hd__a31o_1
*I *4578:B1 I *D sky130_fd_sc_hd__a21o_1
*I *4492:B I *D sky130_fd_sc_hd__and2b_4
*I *4526:A I *D sky130_fd_sc_hd__nor2_1
*I *4500:A I *D sky130_fd_sc_hd__nor2_2
*I *4462:X O *D sky130_fd_sc_hd__mux2_8
*CAP
1 *4467:A 5.88111e-05
2 *4553:B1 0.000399308
3 *4587:B1 0
4 *4578:B1 0
5 *4492:B 0
6 *4526:A 0
7 *4500:A 2.34025e-05
8 *4462:X 0.000598744
9 *155:85 0.000745881
10 *155:74 0.000422288
11 *155:65 0.000921111
12 *155:45 0.00171862
13 *155:30 0.00434519
14 *155:20 0.00408424
15 *155:14 0.00284619
16 *155:8 0.00117728
17 *4467:A *158:43 0.000446281
18 *4467:A *160:6 0.000433843
19 *4500:A *175:56 0
20 *4500:A *175:65 0
21 *4553:B1 *4553:A3 0
22 *4553:B1 *4553:C1 5.41924e-05
23 *4553:B1 *158:43 0.00164964
24 *4553:B1 *160:6 0.00155929
25 *4553:B1 *165:6 7.06771e-05
26 *4553:B1 *165:14 1.5492e-05
27 *155:20 *4482:B 4.95081e-05
28 *155:20 *4492:A_N 8.38543e-05
29 *155:20 *175:10 0.000274078
30 *155:20 *180:59 0.000719404
31 *155:20 *180:106 0.000441978
32 *155:20 *185:6 0.000187129
33 *155:30 *180:59 0.000112834
34 *155:30 *185:6 0.00010109
35 *155:30 *193:21 0.000110155
36 *155:30 *194:6 0.000101908
37 *155:45 *169:117 0
38 *155:45 *175:65 0
39 *155:45 *193:12 0.000138479
40 *155:65 *4574:A 5.24393e-05
41 *155:65 *4580:A1 0.000277714
42 *155:65 *4585:A0 0.000114083
43 *155:65 *168:12 0.000647913
44 *155:65 *183:8 0
45 *155:65 *234:26 0.00041353
46 *81:14 *155:45 0
47 *99:37 *155:45 0.000103637
48 *102:23 *4553:B1 6.53382e-05
49 *126:10 *155:65 8.67053e-05
50 *126:10 *155:74 0.000160182
51 *127:10 *155:65 9.27814e-05
52 *128:12 *155:74 2.84912e-05
53 *128:12 *155:85 0.000216843
54 *154:25 *155:74 0
55 *154:25 *155:85 0
*RES
1 *4462:X *155:8 48.15 
2 *155:8 *155:14 24.7771 
3 *155:14 *155:20 33.5364 
4 *155:20 *155:30 37.3019 
5 *155:30 *4500:A 38.3211 
6 *155:30 *155:45 45.1911 
7 *155:45 *4526:A 23 
8 *155:20 *4492:B 23 
9 *155:14 *155:65 36.605 
10 *155:65 *4578:B1 38 
11 *155:65 *155:74 2.96214 
12 *155:74 *4587:B1 38 
13 *155:74 *155:85 21.1314 
14 *155:85 *4553:B1 43.8179 
15 *155:85 *4467:A 27.9093 
*END

*D_NET *156 0.0011522
*CONN
*I *4464:B1 I *D sky130_fd_sc_hd__o21ai_1
*I *4463:X O *D sky130_fd_sc_hd__or2_1
*CAP
1 *4464:B1 0.000123703
2 *4463:X 9.33199e-05
3 *156:8 0.000217023
4 *4464:B1 *4464:A2 0.000351513
5 *4464:B1 *158:10 0.000140259
6 *156:8 *4465:A1 0
7 *156:8 *207:48 0
8 *156:8 *253:10 0.000169674
9 *4464:A1 *4464:B1 5.67058e-05
*RES
1 *4463:X *156:8 40.2579 
2 *156:8 *4464:B1 41.9564 
*END

*D_NET *157 0.00341732
*CONN
*I *4629:A I *D sky130_fd_sc_hd__clkbuf_1
*I *4580:A1 I *D sky130_fd_sc_hd__a21oi_1
*I *4585:A0 I *D sky130_fd_sc_hd__mux2_1
*I *4464:Y O *D sky130_fd_sc_hd__o21ai_1
*CAP
1 *4629:A 2.34823e-05
2 *4580:A1 8.93653e-05
3 *4585:A0 5.34725e-05
4 *4464:Y 0.000678894
5 *157:10 0.000644993
6 *157:6 0.00120453
7 *157:10 *4658:A 5.50049e-05
8 *4464:A1 *157:6 0.000141052
9 *124:10 *4580:A1 8.76288e-05
10 *124:10 *4585:A0 3.56537e-05
11 *126:10 *4580:A1 1.14452e-05
12 *155:65 *4580:A1 0.000277714
13 *155:65 *4585:A0 0.000114083
*RES
1 *4464:Y *157:6 35.0557 
2 *157:6 *157:10 22.2914 
3 *157:10 *4585:A0 39.5536 
4 *157:10 *4580:A1 41.6664 
5 *157:6 *4629:A 23.4971 
*END

*D_NET *158 0.0340208
*CONN
*I *4500:B I *D sky130_fd_sc_hd__nor2_2
*I *4544:A I *D sky130_fd_sc_hd__nand2_1
*I *4529:A I *D sky130_fd_sc_hd__and3_1
*I *4559:B1 I *D sky130_fd_sc_hd__a21o_1
*I *4545:B1 I *D sky130_fd_sc_hd__a31o_1
*I *4508:B2 I *D sky130_fd_sc_hd__o22a_1
*I *4492:A_N I *D sky130_fd_sc_hd__and2b_4
*I *4553:C1 I *D sky130_fd_sc_hd__a311o_1
*I *4467:B I *D sky130_fd_sc_hd__nand2_4
*I *4587:A1 I *D sky130_fd_sc_hd__a31o_1
*I *4465:X O *D sky130_fd_sc_hd__mux2_8
*CAP
1 *4500:B 0.000230408
2 *4544:A 0
3 *4529:A 0
4 *4559:B1 0
5 *4545:B1 0
6 *4508:B2 0
7 *4492:A_N 0.000222603
8 *4553:C1 2.57877e-05
9 *4467:B 0.00117067
10 *4587:A1 0.000530077
11 *4465:X 0.000368992
12 *158:148 0.0012537
13 *158:130 0.000424741
14 *158:112 0.000240753
15 *158:104 0.000592132
16 *158:102 0.00086246
17 *158:100 0.000995644
18 *158:86 0.00389026
19 *158:64 0.00121656
20 *158:62 0.00304767
21 *158:58 0.000925923
22 *158:43 0.00202634
23 *158:27 0.000324429
24 *158:14 0.00160576
25 *158:10 0.00112025
26 *4492:A_N *200:10 1.14452e-05
27 *4500:B *4528:A2 0
28 *4500:B *180:59 0.000828826
29 *4500:B *192:44 0.000181125
30 *4500:B *193:21 0.000220354
31 *4553:C1 *165:14 2.07283e-05
32 *158:10 *253:10 0.000335006
33 *158:43 *4553:A3 0
34 *158:43 *160:6 9.90162e-05
35 *158:43 *165:6 1.76557e-05
36 *158:43 *165:14 5.50049e-05
37 *158:58 *160:16 6.85576e-05
38 *158:58 *165:10 6.16439e-05
39 *158:58 *196:75 0.000290624
40 *158:62 *165:24 0.000208809
41 *158:64 *4459:B 0
42 *158:64 *165:24 0.000346225
43 *158:64 *181:14 0
44 *158:64 *200:10 0.000155068
45 *158:64 *230:14 0
46 *158:64 *230:44 0
47 *158:64 *243:52 0
48 *158:64 *243:91 0
49 *158:86 *4481:B 1.39431e-05
50 *158:86 *174:10 6.22796e-05
51 *158:86 *178:6 0.000325796
52 *158:86 *179:86 0.000781048
53 *158:100 *4481:B 5.22318e-06
54 *158:104 *190:37 0.000278271
55 *158:112 *228:86 0.000243088
56 *158:112 *231:39 4.65317e-05
57 *158:112 *231:69 0
58 *158:130 *4536:B1 5.50049e-05
59 *158:130 *180:38 0
60 *158:130 *222:45 0
61 *158:148 *4521:B1 0.000117858
62 *158:148 *4572:A1 0.000172574
63 *158:148 *4656:A 0
64 *158:148 *160:96 2.96051e-05
65 *158:148 *179:42 8.25811e-05
66 *158:148 *179:59 0.000209111
67 *158:148 *193:41 0.000177149
68 *158:148 *226:46 0
69 *158:148 *241:14 0
70 *158:148 *243:71 0
71 *4464:B1 *158:10 0.000140259
72 *4467:A *158:43 0.000446281
73 *4520:C *4500:B 4.96717e-05
74 *4550:C *158:112 0.0002575
75 *4553:B1 *4553:C1 5.41924e-05
76 *4553:B1 *158:43 0.00164964
77 *54:10 *158:10 8.08511e-05
78 *54:12 *158:10 0.000141969
79 *54:25 *158:10 2.76611e-06
80 *69:10 *158:148 1.61968e-05
81 *71:8 *158:148 0.000264028
82 *72:20 *158:148 0.000186248
83 *76:8 *158:130 0.000548711
84 *77:22 *158:130 0
85 *90:12 *158:112 5.50106e-05
86 *93:8 *158:62 0.000142808
87 *93:8 *158:64 0.000296017
88 *93:14 *158:86 3.58084e-06
89 *93:14 *158:100 0.000770833
90 *94:10 *158:100 7.53384e-06
91 *94:10 *158:102 3.22879e-05
92 *96:8 *158:102 9.5877e-05
93 *96:8 *158:104 0.00123149
94 *97:12 *158:130 0
95 *105:10 *158:130 0.000187996
96 *117:8 *158:148 0.000111852
97 *119:8 *158:148 0
98 *126:10 *4587:A1 3.7122e-06
99 *147:57 *158:64 3.47879e-05
100 *148:48 *158:86 1.21972e-05
101 *148:73 *158:86 0.000213184
102 *154:25 *158:27 0
103 *154:34 *158:58 0.000324123
104 *155:20 *4492:A_N 8.38543e-05
*RES
1 *4465:X *158:10 48.5229 
2 *158:10 *158:14 28.0086 
3 *158:14 *4587:A1 32.1971 
4 *158:14 *158:27 35.7793 
5 *158:27 *4467:B 23 
6 *4467:B *158:43 49.8664 
7 *158:43 *4553:C1 23.6318 
8 *158:43 *158:58 43.6921 
9 *158:58 *158:62 17.9621 
10 *158:62 *158:64 19.1607 
11 *158:64 *4492:A_N 42.3086 
12 *158:64 *4508:B2 38 
13 *158:62 *158:86 43.2543 
14 *158:86 *158:100 19.9271 
15 *158:100 *158:102 2.05071 
16 *158:102 *158:104 13.485 
17 *158:104 *158:112 36.09 
18 *158:112 *4545:B1 23 
19 *158:104 *4559:B1 23 
20 *158:102 *158:130 38.5136 
21 *158:130 *4529:A 23 
22 *158:100 *4544:A 23 
23 *158:86 *158:148 38.0964 
24 *158:148 *4500:B 48.0464 
*END

*D_NET *159 0.000619877
*CONN
*I *4555:A1 I *D sky130_fd_sc_hd__a211o_1
*I *4466:Y O *D sky130_fd_sc_hd__nor2_1
*CAP
1 *4555:A1 0
2 *4466:Y 0.000206929
3 *159:10 0.000206929
4 *159:10 *169:22 0
5 *159:10 *231:10 0.000141954
6 *4549:A2 *159:10 2.72055e-05
7 *66:23 *159:10 2.5415e-05
8 *98:10 *159:10 1.14452e-05
*RES
1 *4466:Y *159:10 41.8321 
2 *159:10 *4555:A1 38 
*END

*D_NET *160 0.0279866
*CONN
*I *4473:A I *D sky130_fd_sc_hd__or3_4
*I *4571:A1_N I *D sky130_fd_sc_hd__a2bb2o_1
*I *4593:A I *D sky130_fd_sc_hd__or4_1
*I *4536:B1 I *D sky130_fd_sc_hd__a31oi_1
*I *4513:C1 I *D sky130_fd_sc_hd__a311o_1
*I *4502:A1 I *D sky130_fd_sc_hd__o21ai_1
*I *4467:Y O *D sky130_fd_sc_hd__nand2_4
*CAP
1 *4473:A 0.000311945
2 *4571:A1_N 0
3 *4593:A 0.00035447
4 *4536:B1 0.000192384
5 *4513:C1 0
6 *4502:A1 0.000114494
7 *4467:Y 0.000361947
8 *160:96 2.96061e-05
9 *160:68 0.00130299
10 *160:55 0.000415437
11 *160:37 0.00175933
12 *160:35 0.00121866
13 *160:22 0.00125028
14 *160:16 0.0014258
15 *160:8 0.00120326
16 *160:6 0.000361947
17 *4473:A *4473:C 0.000201464
18 *4473:A *4582:A 0
19 *4473:A *165:10 3.72639e-05
20 *4473:A *165:36 6.79006e-05
21 *4502:A1 *4509:B1 0.000243578
22 *4502:A1 *178:24 0.000105154
23 *4593:A *4593:C 7.4416e-05
24 *4593:A *175:65 9.47378e-05
25 *4593:A *190:26 0.000360734
26 *4593:A *221:6 1.41077e-05
27 *160:6 *165:6 0.00216703
28 *160:16 *4589:B1 0.000143446
29 *160:16 *164:29 0.000365265
30 *160:16 *165:10 1.58805e-05
31 *160:16 *168:26 5.0135e-05
32 *160:16 *196:75 5.62433e-06
33 *160:16 *199:24 0
34 *160:16 *236:25 0
35 *160:16 *236:63 5.94125e-05
36 *160:22 *4509:B1 0.000136486
37 *160:22 *178:24 6.22372e-05
38 *160:22 *183:18 0.00154886
39 *160:22 *243:46 0.000650619
40 *160:22 *243:52 0.000482844
41 *160:35 *230:22 0.00146362
42 *160:55 *4513:A3 9.41704e-05
43 *160:55 *179:25 0.000139657
44 *160:68 *175:65 0.00140808
45 *160:68 *190:26 0.000237394
46 *160:68 *228:62 2.11157e-05
47 *4467:A *160:6 0.000433843
48 *4513:A1 *160:55 6.21385e-05
49 *4529:C *4536:B1 9.70259e-06
50 *4553:B1 *160:6 0.00155929
51 *4594:B *4593:A 3.45967e-05
52 *63:18 *160:55 4.81019e-05
53 *65:32 *160:55 0.000139657
54 *71:8 *160:96 6.16439e-05
55 *80:10 *4536:B1 0.000139754
56 *86:10 *4536:B1 0.000263524
57 *86:10 *4593:A 6.25829e-05
58 *86:10 *160:68 0.000191157
59 *88:12 *160:68 0.000646726
60 *115:8 *160:35 4.2573e-05
61 *115:8 *160:37 0.00115909
62 *115:8 *160:55 0.000181919
63 *118:12 *160:35 0.00176274
64 *130:26 *160:68 2.11066e-05
65 *147:10 *4473:A 0.00020879
66 *147:10 *160:16 3.35885e-05
67 *147:12 *160:16 6.37326e-05
68 *148:23 *160:35 5.43562e-05
69 *158:43 *160:6 9.90162e-05
70 *158:58 *160:16 6.85576e-05
71 *158:130 *4536:B1 5.50049e-05
72 *158:148 *160:96 2.96051e-05
*RES
1 *4467:Y *160:6 46.9664 
2 *160:6 *160:8 15 
3 *160:8 *160:16 33.6429 
4 *160:16 *160:22 34.2021 
5 *160:22 *4502:A1 41.3143 
6 *160:22 *160:35 37.0607 
7 *160:35 *160:37 13.0086 
8 *160:37 *160:55 39.0314 
9 *160:55 *4513:C1 23 
10 *160:37 *160:68 38.2207 
11 *160:68 *4536:B1 43.3857 
12 *160:68 *4593:A 45.975 
13 *160:35 *160:96 30.8493 
14 *160:96 *4571:A1_N 23 
15 *160:8 *4473:A 46.5964 
*END

*D_NET *161 0.00212983
*CONN
*I *4469:B1 I *D sky130_fd_sc_hd__o21ai_4
*I *4468:X O *D sky130_fd_sc_hd__or2_4
*CAP
1 *4469:B1 0
2 *4468:X 2.85931e-05
3 *161:12 0.00100797
4 *161:8 0.00103656
5 *161:8 *245:16 5.67058e-05
6 *161:12 *256:12 0
7 *143:12 *161:12 0
*RES
1 *4468:X *161:8 38.6214 
2 *161:8 *161:12 34.1607 
3 *161:12 *4469:B1 23 
*END

*D_NET *162 0.0241096
*CONN
*I *4592:A0 I *D sky130_fd_sc_hd__mux2_1
*I *4562:B2 I *D sky130_fd_sc_hd__a22o_1
*I *4511:B2 I *D sky130_fd_sc_hd__a32o_1
*I *4534:A1 I *D sky130_fd_sc_hd__a22o_1
*I *4572:B1 I *D sky130_fd_sc_hd__o31a_1
*I *4548:B2 I *D sky130_fd_sc_hd__a22o_1
*I *4593:B I *D sky130_fd_sc_hd__or4_1
*I *4473:B I *D sky130_fd_sc_hd__or3_4
*I *4583:A1 I *D sky130_fd_sc_hd__mux2_1
*I *4469:Y O *D sky130_fd_sc_hd__o21ai_4
*CAP
1 *4592:A0 0
2 *4562:B2 0.000130086
3 *4511:B2 0
4 *4534:A1 0
5 *4572:B1 2.54164e-05
6 *4548:B2 0.000363891
7 *4593:B 0.000596556
8 *4473:B 0
9 *4583:A1 0.00066806
10 *4469:Y 0
11 *162:117 0.000302748
12 *162:93 0.000212431
13 *162:77 0.00108386
14 *162:49 0.00129121
15 *162:45 0.00169126
16 *162:43 0.000752951
17 *162:39 0.00196552
18 *162:26 0.00160082
19 *162:24 0.00113935
20 *162:12 0.000725554
21 *162:8 0.00199442
22 *162:4 0.00126887
23 *4548:B2 *4548:A1 0.000272458
24 *4548:B2 *216:6 0.000359326
25 *4562:B2 *4511:A1 3.92407e-05
26 *4572:B1 *186:22 3.22879e-05
27 *4593:B *221:6 0.000374387
28 *162:8 *164:14 0.00182704
29 *162:8 *227:12 0.000131442
30 *162:8 *227:16 3.52383e-05
31 *162:12 *243:10 0
32 *162:12 *243:16 0
33 *162:26 *4473:C 2.93747e-05
34 *162:39 *4473:C 6.16283e-05
35 *162:39 *4511:A1 0.000223043
36 *162:39 *221:6 0.00122361
37 *162:43 *215:6 0.00100714
38 *162:77 *169:107 2.24608e-05
39 *162:77 *170:35 0
40 *162:77 *242:34 0
41 *162:93 *4511:A1 0.000160191
42 *4469:A1 *162:8 0.000609769
43 *4581:B1 *162:8 6.49619e-05
44 *4587:A3 *162:12 0.000191157
45 *4592:A1 *162:117 5.50106e-05
46 *62:10 *162:39 0.000225265
47 *62:10 *162:93 0.000123172
48 *72:20 *162:77 0.000289229
49 *84:14 *162:77 0
50 *85:8 *4548:B2 0
51 *97:12 *4548:B2 5.70419e-05
52 *110:10 *4562:B2 0.000107548
53 *119:8 *162:77 4.6318e-06
54 *128:12 *162:12 0.000497684
55 *129:12 *162:12 8.62876e-05
56 *136:14 *162:117 0.000186026
*RES
1 *4469:Y *162:4 23 
2 *162:4 *162:8 48.0186 
3 *162:8 *162:12 30.9914 
4 *162:12 *4583:A1 23 
5 *4583:A1 *162:24 35.0557 
6 *162:24 *162:26 2.52714 
7 *162:26 *4473:B 23 
8 *162:26 *162:39 44.3314 
9 *162:39 *162:43 27.5321 
10 *162:43 *162:45 4.90929 
11 *162:45 *162:49 20.3857 
12 *162:49 *4593:B 47.9014 
13 *162:49 *4548:B2 47.9221 
14 *162:45 *162:77 35.5693 
15 *162:77 *4572:B1 38.6214 
16 *162:43 *4534:A1 23 
17 *162:39 *162:93 2.25786 
18 *162:93 *4511:B2 38 
19 *162:93 *4562:B2 41.3143 
20 *162:24 *162:117 35.8207 
21 *162:117 *4592:A0 23 
*END

*D_NET *163 0.000759502
*CONN
*I *4472:B1 I *D sky130_fd_sc_hd__o21ai_2
*I *4470:X O *D sky130_fd_sc_hd__or2_1
*CAP
1 *4472:B1 7.49568e-05
2 *4470:X 8.48252e-05
3 *163:8 0.000159782
4 *4472:B1 *4472:A2 1.24376e-05
5 *4472:B1 *243:10 8.10976e-05
6 *4472:B1 *246:12 0.000212168
7 *163:8 *4478:S 8.16253e-05
8 *163:8 *253:10 5.26101e-05
*RES
1 *4470:X *163:8 40.2579 
2 *163:8 *4472:B1 40.5271 
*END

*D_NET *164 0.0111025
*CONN
*I *4507:A2 I *D sky130_fd_sc_hd__o22a_1
*I *4505:A1 I *D sky130_fd_sc_hd__a31o_1
*I *4634:A I *D sky130_fd_sc_hd__clkbuf_1
*I *4471:X O *D sky130_fd_sc_hd__mux2_4
*CAP
1 *4507:A2 0
2 *4505:A1 0.000486944
3 *4634:A 0.000179198
4 *4471:X 0.000185147
5 *164:29 0.00112349
6 *164:16 0.000949338
7 *164:14 0.00154101
8 *164:8 0.00159256
9 *4505:A1 *4482:B 0
10 *4505:A1 *175:10 6.16531e-05
11 *4505:A1 *175:23 1.41077e-05
12 *4505:A1 *175:46 0
13 *4505:A1 *175:83 0
14 *4505:A1 *180:106 6.16531e-05
15 *4505:A1 *234:26 0.000395857
16 *4634:A *230:10 8.08139e-06
17 *4634:A *240:8 5.50049e-05
18 *164:8 *255:10 0.000354788
19 *164:14 *227:16 0.000254906
20 *164:14 *240:8 1.14154e-05
21 *164:14 *240:21 0.000148688
22 *164:16 *240:8 0.000127821
23 *164:16 *240:21 1.03955e-05
24 *164:29 *175:83 0
25 *164:29 *199:24 0
26 *164:29 *236:40 0.000632107
27 *78:10 *4505:A1 0
28 *118:8 *4505:A1 6.07611e-06
29 *118:8 *164:29 3.72639e-05
30 *128:8 *164:14 0.000527112
31 *147:12 *164:29 6.43149e-05
32 *147:14 *164:29 8.1292e-05
33 *160:16 *164:29 0.000365265
34 *162:8 *164:14 0.00182704
*RES
1 *4471:X *164:8 42.7229 
2 *164:8 *164:14 48.9921 
3 *164:14 *164:16 2.05071 
4 *164:16 *4634:A 25.7757 
5 *164:16 *164:29 30.9914 
6 *164:29 *4505:A1 46.2443 
7 *164:29 *4507:A2 38 
*END

*D_NET *165 0.0130761
*CONN
*I *4473:C I *D sky130_fd_sc_hd__or3_4
*I *4628:A I *D sky130_fd_sc_hd__clkbuf_1
*I *4551:B I *D sky130_fd_sc_hd__and4_1
*I *4493:A I *D sky130_fd_sc_hd__nand2_2
*I *4472:Y O *D sky130_fd_sc_hd__o21ai_2
*CAP
1 *4473:C 0.000377606
2 *4628:A 9.45911e-05
3 *4551:B 0
4 *4493:A 0
5 *4472:Y 0
6 *165:36 0.000538992
7 *165:24 0.000686551
8 *165:14 0.00139642
9 *165:10 0.000833378
10 *165:6 0.000854383
11 *165:4 0.000797671
12 *4473:C *4582:A 5.61414e-05
13 *4473:C *196:75 1.12487e-05
14 *4473:C *218:12 0
15 *4628:A *196:75 5.50049e-05
16 *165:6 *4472:A2 5.37348e-06
17 *165:6 *243:10 0.00221572
18 *165:10 *196:75 2.60152e-05
19 *165:14 *4551:C 0.000294135
20 *165:14 *4553:A3 5.25534e-05
21 *165:24 *4459:B 0
22 *165:24 *4551:C 2.93845e-05
23 *165:24 *185:89 1.01436e-05
24 *165:24 *227:26 5.50049e-05
25 *165:24 *236:8 0
26 *165:36 *196:75 6.32688e-05
27 *4459:A *165:24 5.67058e-05
28 *4473:A *4473:C 0.000201464
29 *4473:A *165:10 3.72639e-05
30 *4473:A *165:36 6.79006e-05
31 *4551:A *165:14 8.06804e-06
32 *4553:B1 *165:6 7.06771e-05
33 *4553:B1 *165:14 1.5492e-05
34 *4553:C1 *165:14 2.07283e-05
35 *102:23 *165:6 0.00117232
36 *102:23 *165:14 8.67228e-06
37 *158:43 *165:6 1.76557e-05
38 *158:43 *165:14 5.50049e-05
39 *158:58 *165:10 6.16439e-05
40 *158:62 *165:24 0.000208809
41 *158:64 *165:24 0.000346225
42 *160:6 *165:6 0.00216703
43 *160:16 *165:10 1.58805e-05
44 *162:26 *4473:C 2.93747e-05
45 *162:39 *4473:C 6.16283e-05
*RES
1 *4472:Y *165:4 23 
2 *165:4 *165:6 37.7829 
3 *165:6 *165:10 16.5536 
4 *165:10 *165:14 25.15 
5 *165:14 *165:24 43.3607 
6 *165:24 *4493:A 23 
7 *165:14 *4551:B 23 
8 *165:10 *165:36 1.90571 
9 *165:36 *4628:A 39.5743 
10 *165:36 *4473:C 46.4514 
*END

*D_NET *166 0.00308362
*CONN
*I *4591:B1 I *D sky130_fd_sc_hd__a21oi_1
*I *4477:A I *D sky130_fd_sc_hd__nor2_2
*I *4582:A I *D sky130_fd_sc_hd__nor2_1
*I *4473:X O *D sky130_fd_sc_hd__or3_4
*CAP
1 *4591:B1 5.0938e-05
2 *4477:A 0.000199888
3 *4582:A 0.00022784
4 *4473:X 0
5 *166:21 0.000396766
6 *166:6 0.00037378
7 *4477:A *175:98 0.000181125
8 *4477:A *215:6 0.000574091
9 *4582:A *180:93 0.000312348
10 *4582:A *218:12 0.000227497
11 *4591:B1 *175:98 4.2573e-05
12 *4591:B1 *215:6 0.000183733
13 *4591:B1 *236:85 2.4754e-05
14 *166:21 *218:12 0.000232142
15 *4473:A *4582:A 0
16 *4473:C *4582:A 5.61414e-05
17 *137:8 *166:21 0
18 *147:10 *4582:A 0
19 *147:10 *166:21 0
*RES
1 *4473:X *166:6 38 
2 *166:6 *4582:A 44.4421 
3 *166:6 *166:21 18.3143 
4 *166:21 *4477:A 29.8357 
5 *166:21 *4591:B1 25.0507 
*END

*D_NET *167 0.000709205
*CONN
*I *4475:B1 I *D sky130_fd_sc_hd__o21a_4
*I *4476:B1 I *D sky130_fd_sc_hd__o21ai_4
*I *4474:X O *D sky130_fd_sc_hd__or2_4
*CAP
1 *4475:B1 0
2 *4476:B1 0
3 *4474:X 0.000165359
4 *167:12 0.000131582
5 *167:6 0.000296942
6 *167:6 *4475:A1 5.67058e-05
7 *167:12 *209:20 5.86165e-05
8 *167:12 *232:40 0
*RES
1 *4474:X *167:6 26.0036 
2 *167:6 *167:12 32.9621 
3 *167:12 *4476:B1 23 
4 *167:6 *4475:B1 23 
*END

*D_NET *168 0.016077
*CONN
*I *4581:A1 I *D sky130_fd_sc_hd__a32o_1
*I *4580:B1 I *D sky130_fd_sc_hd__a21oi_1
*I *4589:B1 I *D sky130_fd_sc_hd__o31a_1
*I *4504:B1 I *D sky130_fd_sc_hd__o21ai_1
*I *4572:A1 I *D sky130_fd_sc_hd__o31a_1
*I *4521:B1 I *D sky130_fd_sc_hd__a31o_1
*I *4475:X O *D sky130_fd_sc_hd__o21a_4
*CAP
1 *4581:A1 0
2 *4580:B1 0
3 *4589:B1 0.000197564
4 *4504:B1 0
5 *4572:A1 0.000275554
6 *4521:B1 0.000215331
7 *4475:X 3.77894e-05
8 *168:81 0.000203411
9 *168:30 0.00101528
10 *168:26 0.00148122
11 *168:18 0.00221166
12 *168:12 0.00214054
13 *168:8 0.000917635
14 *4521:B1 *4517:A3 0
15 *4521:B1 *243:71 3.0647e-05
16 *4572:A1 *186:22 0.000182826
17 *4572:A1 *243:71 0.000124082
18 *4589:B1 *196:75 1.14452e-05
19 *4589:B1 *218:12 0.000166522
20 *4589:B1 *236:25 0.000204337
21 *4589:B1 *236:51 6.59431e-05
22 *168:12 *4574:A 6.16531e-05
23 *168:12 *199:62 0
24 *168:12 *234:26 0.00041129
25 *168:18 *178:59 0.000436773
26 *168:18 *227:26 0.000382867
27 *168:26 *4542:A1 2.64616e-05
28 *168:26 *4542:C1 3.47899e-05
29 *168:26 *236:25 0.000166532
30 *168:26 *236:40 5.50106e-05
31 *168:26 *243:56 0.000148008
32 *168:30 *4635:A 5.12254e-05
33 *168:30 *4656:A 9.67842e-05
34 *168:30 *196:46 0.00154798
35 *168:30 *243:56 0.000907436
36 *4521:A2 *4521:B1 5.50049e-05
37 *4572:A2 *4572:A1 2.30292e-05
38 *4573:B2 *4572:A1 5.50106e-05
39 *4581:A3 *168:12 0
40 *65:36 *168:30 0.000114856
41 *92:10 *168:26 0.000272377
42 *114:12 *4572:A1 0.000110913
43 *121:8 *168:12 0.000196549
44 *122:8 *168:12 0
45 *122:8 *168:81 0.000166522
46 *127:10 *168:12 5.94125e-05
47 *127:10 *168:18 1.24376e-05
48 *127:10 *168:81 7.04119e-05
49 *154:10 *168:12 0
50 *155:65 *168:12 0.000647913
51 *158:148 *4521:B1 0.000117858
52 *158:148 *4572:A1 0.000172574
53 *160:16 *4589:B1 0.000143446
54 *160:16 *168:26 5.0135e-05
*RES
1 *4475:X *168:8 38.6214 
2 *168:8 *168:12 34.865 
3 *168:12 *168:18 36.1286 
4 *168:18 *168:26 33.1457 
5 *168:26 *168:30 35.6314 
6 *168:30 *4521:B1 41.9357 
7 *168:30 *4572:A1 45.6229 
8 *168:26 *4504:B1 23 
9 *168:18 *4589:B1 44.1314 
10 *168:12 *4580:B1 23 
11 *168:12 *168:81 34.3086 
12 *168:81 *4581:A1 23 
*END

*D_NET *169 0.0263636
*CONN
*I *4593:C I *D sky130_fd_sc_hd__or4_1
*I *4539:B1 I *D sky130_fd_sc_hd__o21a_1
*I *4526:B I *D sky130_fd_sc_hd__nor2_1
*I *4590:A1 I *D sky130_fd_sc_hd__a22o_1
*I *4502:B1 I *D sky130_fd_sc_hd__o21ai_1
*I *4477:B I *D sky130_fd_sc_hd__nor2_2
*I *4561:B2 I *D sky130_fd_sc_hd__a221o_1
*I *4523:B I *D sky130_fd_sc_hd__or4_1
*I *4522:A I *D sky130_fd_sc_hd__nor2_1
*I *4476:Y O *D sky130_fd_sc_hd__o21ai_4
*CAP
1 *4593:C 0.000394509
2 *4539:B1 0.000283984
3 *4526:B 0
4 *4590:A1 0
5 *4502:B1 5.67488e-05
6 *4477:B 0
7 *4561:B2 1.32885e-05
8 *4523:B 0.000905089
9 *4522:A 0
10 *4476:Y 0.00117758
11 *169:117 0.000465002
12 *169:113 0.00119242
13 *169:107 0.00081473
14 *169:87 0.000850604
15 *169:69 0.00117273
16 *169:43 0.00108954
17 *169:33 0.0015833
18 *169:22 0.00169856
19 *169:16 0.00339745
20 *169:12 0.00308167
21 *169:8 0.00172493
22 *4523:B *196:16 2.20614e-05
23 *4561:B2 *196:16 2.1381e-05
24 *4593:C *175:65 0.000106012
25 *4593:C *221:6 0.000400198
26 *169:12 *4482:B 0.000125023
27 *169:12 *171:21 0.000251706
28 *169:12 *244:10 4.02103e-05
29 *169:16 *4489:A2 0.000916682
30 *169:16 *4507:B1 0.000350606
31 *169:16 *178:24 0.000351519
32 *169:16 *189:14 9.84794e-05
33 *169:16 *199:24 6.70749e-05
34 *169:16 *244:25 5.19833e-05
35 *169:16 *244:27 1.84959e-05
36 *169:22 *178:14 0
37 *169:22 *178:16 0
38 *169:22 *178:24 0
39 *169:22 *179:86 0
40 *169:22 *222:65 0
41 *169:22 *244:27 8.38096e-05
42 *169:33 *222:65 0
43 *169:43 *196:16 6.89029e-05
44 *169:43 *228:22 2.31209e-05
45 *169:69 *180:93 0
46 *169:69 *196:6 0.000188564
47 *169:69 *221:12 7.30978e-05
48 *169:69 *228:6 0.000156142
49 *169:87 *4588:A1 0.000302358
50 *169:87 *171:17 8.57765e-05
51 *169:87 *171:21 0.000588102
52 *169:87 *178:59 0
53 *169:87 *227:26 0.000111852
54 *169:87 *238:16 0
55 *169:87 *244:10 8.76751e-05
56 *169:107 *242:34 6.12496e-06
57 *169:117 *175:65 4.76829e-05
58 *4532:C *169:113 0.000349076
59 *4593:A *4593:C 7.4416e-05
60 *62:10 *169:22 0
61 *62:10 *169:43 2.11157e-05
62 *66:23 *169:22 0
63 *72:20 *169:107 3.28227e-05
64 *77:6 *4539:B1 3.22879e-05
65 *77:14 *4539:B1 0.000162964
66 *82:8 *169:117 0.000141879
67 *83:8 *4523:B 5.50049e-05
68 *83:8 *169:107 0.000141954
69 *98:10 *169:22 6.18132e-05
70 *98:10 *169:33 1.28404e-05
71 *109:18 *4523:B 0.000375898
72 *132:6 *169:87 0.000141954
73 *134:8 *169:87 0
74 *147:14 *169:87 0
75 *147:22 *169:87 0
76 *148:58 *169:22 0
77 *154:34 *169:87 2.4754e-05
78 *154:64 *169:22 0.000165593
79 *155:45 *169:117 0
80 *159:10 *169:22 0
81 *162:77 *169:107 2.24608e-05
*RES
1 *4476:Y *169:8 38.8879 
2 *169:8 *169:12 28.1743 
3 *169:12 *169:16 40.3957 
4 *169:16 *169:22 42.4464 
5 *169:22 *4522:A 38 
6 *169:22 *169:33 8.67321 
7 *169:33 *169:43 25.0708 
8 *169:43 *4523:B 34.6259 
9 *169:43 *4561:B2 23.4971 
10 *169:33 *169:69 33.7089 
11 *169:69 *4477:B 23 
12 *169:16 *4502:B1 24.2014 
13 *169:12 *169:87 35.5071 
14 *169:87 *4590:A1 23 
15 *4523:B *169:107 41.7907 
16 *169:107 *169:113 39.6736 
17 *169:113 *169:117 18.6664 
18 *169:117 *4526:B 23 
19 *169:117 *4539:B1 27.9507 
20 *169:113 *4593:C 47.1557 
*END

*D_NET *170 0.0109524
*CONN
*I *4562:A1 I *D sky130_fd_sc_hd__a22o_1
*I *4511:A2 I *D sky130_fd_sc_hd__a32o_1
*I *4573:A2 I *D sky130_fd_sc_hd__a22o_1
*I *4534:B2 I *D sky130_fd_sc_hd__a22o_1
*I *4548:A1 I *D sky130_fd_sc_hd__a22o_1
*I *4477:Y O *D sky130_fd_sc_hd__nor2_2
*CAP
1 *4562:A1 0.000173414
2 *4511:A2 0
3 *4573:A2 5.79336e-05
4 *4534:B2 0
5 *4548:A1 0.000643536
6 *4477:Y 0.000387611
7 *170:44 0.000973807
8 *170:35 0.000110624
9 *170:22 0.000899711
10 *170:20 0.00178305
11 *170:12 0.000721625
12 *170:10 0.000295392
13 *170:6 0.000509589
14 *4548:A1 *216:6 0.000312357
15 *4562:A1 *238:66 0.000124873
16 *4573:A2 *186:22 2.02872e-05
17 *4573:A2 *218:8 3.7122e-06
18 *170:6 *215:6 0.00113927
19 *170:20 *4511:A1 2.18676e-05
20 *170:20 *216:6 0.000387731
21 *170:22 *216:6 0.0001042
22 *170:44 *179:112 0
23 *170:44 *196:27 0.000385341
24 *170:44 *196:33 0.000420119
25 *170:44 *229:30 0
26 *170:44 *229:38 0
27 *170:44 *229:55 9.10209e-05
28 *170:44 *243:71 5.97583e-05
29 *4485:A *170:44 0.000249909
30 *4511:B1 *170:20 0.000114604
31 *4534:A2 *170:44 0.000300955
32 *4548:B2 *4548:A1 0.000272458
33 *4573:A1 *4573:A2 5.50049e-05
34 *84:14 *170:35 6.07611e-06
35 *110:10 *4562:A1 0.000263228
36 *110:10 *170:10 6.33511e-05
37 *162:77 *170:35 0
*RES
1 *4477:Y *170:6 35.5321 
2 *170:6 *170:10 16.9057 
3 *170:10 *170:12 15 
4 *170:12 *170:20 14.1479 
5 *170:20 *170:22 3.00357 
6 *170:22 *4548:A1 36.9614 
7 *170:22 *170:35 32.2579 
8 *170:35 *4534:B2 23 
9 *170:20 *170:44 37.33 
10 *170:44 *4573:A2 39.0979 
11 *170:12 *4511:A2 23 
12 *170:10 *4562:A1 42.4329 
*END

*D_NET *171 0.00888888
*CONN
*I *4587:A2 I *D sky130_fd_sc_hd__a31o_1
*I *4579:D I *D sky130_fd_sc_hd__and4_1
*I *4482:A_N I *D sky130_fd_sc_hd__nand2b_4
*I *4632:A I *D sky130_fd_sc_hd__clkbuf_1
*I *4478:X O *D sky130_fd_sc_hd__mux2_8
*CAP
1 *4587:A2 0.000178218
2 *4579:D 0
3 *4482:A_N 0
4 *4632:A 0.000170685
5 *4478:X 0
6 *171:34 0.000375089
7 *171:21 0.000979379
8 *171:17 0.00169458
9 *171:6 0.00218903
10 *171:4 0.00150002
11 *171:17 *238:10 0
12 *171:17 *243:106 0
13 *171:21 *230:93 0
14 *171:34 *4579:B 5.50049e-05
15 *126:10 *4587:A2 0.000144352
16 *131:12 *171:17 0
17 *131:12 *171:21 0
18 *133:10 *4587:A2 0.000358425
19 *133:10 *171:34 8.96023e-05
20 *135:10 *171:17 0
21 *136:14 *171:17 0
22 *148:73 *171:34 0.000228909
23 *169:12 *171:21 0.000251706
24 *169:87 *171:17 8.57765e-05
25 *169:87 *171:21 0.000588102
*RES
1 *4478:X *171:4 23 
2 *171:4 *171:6 27.3014 
3 *171:6 *4632:A 26.0036 
4 *171:6 *171:17 23.5964 
5 *171:17 *171:21 37.33 
6 *171:21 *4482:A_N 23 
7 *171:17 *171:34 20.075 
8 *171:34 *4579:D 23 
9 *171:34 *4587:A2 28.3857 
*END

*D_NET *172 0.00227528
*CONN
*I *4494:A1 I *D sky130_fd_sc_hd__o221a_1
*I *4495:B I *D sky130_fd_sc_hd__nor2_1
*I *4479:Y O *D sky130_fd_sc_hd__inv_1
*CAP
1 *4494:A1 0
2 *4495:B 0
3 *4479:Y 0
4 *172:29 0.000427074
5 *172:16 0.000265512
6 *172:4 0.000692586
7 *172:16 *226:46 0.00015508
8 *172:16 *239:14 0.000129771
9 *172:16 *239:24 0.000165034
10 *172:29 *4494:A2 4.77164e-06
11 *172:29 *175:48 3.98818e-05
12 *172:29 *185:10 0
13 *65:50 *172:16 0
14 *65:50 *172:29 0
15 *151:57 *172:16 7.84431e-05
16 *151:57 *172:29 0.000317131
*RES
1 *4479:Y *172:4 23 
2 *172:4 *172:16 36.3489 
3 *172:16 *4495:B 23 
4 *172:4 *172:29 36.9289 
5 *172:29 *4494:A1 23 
*END

*D_NET *173 0.00710741
*CONN
*I *4543:A2 I *D sky130_fd_sc_hd__a31o_1
*I *4493:B I *D sky130_fd_sc_hd__nand2_2
*I *4542:C1 I *D sky130_fd_sc_hd__o211a_1
*I *4489:A2 I *D sky130_fd_sc_hd__a32o_1
*I *4505:A2 I *D sky130_fd_sc_hd__a31o_1
*I *4480:Y O *D sky130_fd_sc_hd__nand2_2
*CAP
1 *4543:A2 0
2 *4493:B 4.40666e-05
3 *4542:C1 0.000201762
4 *4489:A2 0.000220878
5 *4505:A2 9.06452e-05
6 *4480:Y 5.35353e-05
7 *173:47 0.000242697
8 *173:30 0.00054531
9 *173:10 0.000402398
10 *173:8 0.000289328
11 *4489:A2 *181:14 2.39868e-05
12 *4489:A2 *244:25 0.000291056
13 *4489:A2 *244:27 5.7932e-05
14 *4493:B *178:42 1.22822e-05
15 *4493:B *178:59 3.22879e-05
16 *4493:B *227:26 0.000182832
17 *4505:A2 *175:46 3.70094e-05
18 *4505:A2 *175:83 0.000206577
19 *4505:A2 *180:63 0.000243587
20 *4542:C1 *4542:A1 5.3304e-05
21 *4542:C1 *236:40 6.29487e-05
22 *173:8 *230:68 0.000269769
23 *173:10 *175:83 0.000213551
24 *173:10 *180:63 0.000203407
25 *173:30 *175:83 0.000339903
26 *173:30 *180:63 0.00033199
27 *173:47 *175:83 3.70187e-05
28 *173:47 *175:98 0.000235312
29 *173:47 *178:59 0.000206483
30 *173:47 *180:63 0.000259937
31 *173:47 *227:26 0.00039759
32 *4459:A *4493:B 9.67842e-05
33 *118:12 *173:8 0.000269769
34 *168:26 *4542:C1 3.47899e-05
35 *169:16 *4489:A2 0.000916682
*RES
1 *4480:Y *173:8 41.0036 
2 *173:8 *173:10 2.96214 
3 *173:10 *4505:A2 41.3143 
4 *173:10 *4489:A2 48.15 
5 *173:8 *173:30 4.72286 
6 *173:30 *4542:C1 41.5007 
7 *173:30 *173:47 23.0993 
8 *173:47 *4493:B 25.0507 
9 *173:47 *4543:A2 23 
*END

*D_NET *174 0.00115453
*CONN
*I *4568:A3 I *D sky130_fd_sc_hd__a31o_1
*I *4481:Y O *D sky130_fd_sc_hd__nand2_1
*CAP
1 *4568:A3 0
2 *4481:Y 0.000215881
3 *174:10 0.000215881
4 *174:10 *178:6 2.93845e-05
5 *174:10 *196:27 1.01436e-05
6 *174:10 *196:33 0.00015795
7 *174:10 *230:35 0.000160191
8 *93:14 *174:10 0.000302817
9 *158:86 *174:10 6.22796e-05
*RES
1 *4481:Y *174:10 43.7379 
2 *174:10 *4568:A3 38 
*END

*D_NET *175 0.0246103
*CONN
*I *4591:A2 I *D sky130_fd_sc_hd__a21oi_1
*I *4542:A1 I *D sky130_fd_sc_hd__o211a_1
*I *4519:A2 I *D sky130_fd_sc_hd__a21o_1
*I *4535:A I *D sky130_fd_sc_hd__nand2_1
*I *4528:A1 I *D sky130_fd_sc_hd__a21o_1
*I *4505:A3 I *D sky130_fd_sc_hd__a31o_1
*I *4527:A I *D sky130_fd_sc_hd__nand2_1
*I *4482:Y O *D sky130_fd_sc_hd__nand2b_4
*CAP
1 *4591:A2 0
2 *4542:A1 2.77218e-05
3 *4519:A2 2.34823e-05
4 *4535:A 4.24211e-05
5 *4528:A1 0
6 *4505:A3 9.98752e-05
7 *4527:A 0
8 *4482:Y 0.000220152
9 *175:98 0.000978721
10 *175:83 0.00137645
11 *175:65 0.00147762
12 *175:56 0.00246864
13 *175:48 0.00177785
14 *175:46 0.00286926
15 *175:34 0.00251833
16 *175:23 0.000338511
17 *175:12 0.000238636
18 *175:10 0.000220152
19 *175:10 *4482:B 5.67058e-05
20 *175:10 *180:106 8.04908e-05
21 *175:23 *234:26 0.000218473
22 *175:46 *180:63 0.000126066
23 *175:46 *180:106 0
24 *175:48 *4479:A 2.80753e-05
25 *175:48 *179:42 7.88828e-05
26 *175:48 *239:24 9.75779e-05
27 *175:56 *179:12 0
28 *175:56 *179:42 1.22822e-05
29 *175:56 *192:29 0.000516932
30 *175:56 *241:14 0.000143655
31 *175:65 *179:25 0
32 *175:65 *184:31 6.53712e-05
33 *175:65 *185:33 6.33511e-05
34 *175:65 *190:26 0
35 *175:65 *191:46 0
36 *175:65 *193:12 0
37 *175:83 *199:24 0.000106506
38 *175:83 *238:24 0.000416976
39 *175:98 *180:63 0.000402121
40 *175:98 *180:93 0.000194449
41 *175:98 *218:12 7.75329e-06
42 *175:98 *233:12 0.000113153
43 *175:98 *236:51 5.55278e-05
44 *175:98 *236:70 0.000128131
45 *175:98 *236:85 0.000485392
46 *175:98 *238:24 0.000607482
47 *4477:A *175:98 0.000181125
48 *4500:A *175:56 0
49 *4500:A *175:65 0
50 *4505:A1 *175:10 6.16531e-05
51 *4505:A1 *175:23 1.41077e-05
52 *4505:A1 *175:46 0
53 *4505:A1 *175:83 0
54 *4505:A2 *175:46 3.70094e-05
55 *4505:A2 *175:83 0.000206577
56 *4518:A1 *4519:A2 0
57 *4518:B1 *175:48 0.000179528
58 *4542:C1 *4542:A1 5.3304e-05
59 *4591:B1 *175:98 4.2573e-05
60 *4593:A *175:65 9.47378e-05
61 *4593:C *175:65 0.000106012
62 *78:10 *175:23 2.93845e-05
63 *79:10 *175:65 7.03766e-05
64 *80:10 *175:65 0.000138718
65 *81:14 *175:65 0.00174402
66 *82:8 *175:65 7.28526e-05
67 *86:10 *175:65 5.55278e-05
68 *88:12 *175:65 2.86716e-05
69 *147:76 *175:98 0.000110913
70 *151:42 *175:48 7.44161e-06
71 *151:57 *175:48 7.06229e-05
72 *155:20 *175:10 0.000274078
73 *155:45 *175:65 0
74 *160:68 *175:65 0.00140808
75 *164:29 *175:83 0
76 *168:26 *4542:A1 2.64616e-05
77 *169:117 *175:65 4.76829e-05
78 *172:29 *175:48 3.98818e-05
79 *173:10 *175:83 0.000213551
80 *173:30 *175:83 0.000339903
81 *173:47 *175:83 3.70187e-05
82 *173:47 *175:98 0.000235312
*RES
1 *4482:Y *175:10 43.9657 
2 *175:10 *175:12 15 
3 *175:12 *4527:A 23 
4 *175:12 *175:23 5.90357 
5 *175:23 *4505:A3 24.595 
6 *175:23 *175:34 15 
7 *175:34 *175:46 45.7504 
8 *175:46 *175:48 14.6761 
9 *175:48 *175:56 31.5714 
10 *175:56 *4528:A1 38 
11 *175:56 *175:65 39.585 
12 *175:65 *4535:A 38.6214 
13 *175:48 *4519:A2 23.4971 
14 *175:34 *175:83 10.7093 
15 *175:83 *4542:A1 38.6214 
16 *175:83 *175:98 43.3786 
17 *175:98 *4591:A2 23 
*END

*D_NET *176 0.00908916
*CONN
*I *4546:A1 I *D sky130_fd_sc_hd__a31o_1
*I *4525:A2 I *D sky130_fd_sc_hd__a211o_1
*I *4567:B2 I *D sky130_fd_sc_hd__o32a_1
*I *4483:Y O *D sky130_fd_sc_hd__xnor2_1
*CAP
1 *4546:A1 0.000267301
2 *4525:A2 0.000330822
3 *4567:B2 0.000375031
4 *4483:Y 0.000256066
5 *176:20 0.00136239
6 *176:10 0.00117991
7 *4525:A2 *4525:C1 5.79416e-05
8 *4525:A2 *186:62 5.50106e-05
9 *4525:A2 *190:12 0
10 *4525:A2 *190:22 2.6113e-05
11 *4525:A2 *227:65 0.000151274
12 *4525:A2 *227:75 6.11038e-05
13 *4546:A1 *180:8 0.000512338
14 *4546:A1 *180:25 3.70094e-05
15 *4546:A1 *244:116 0.000547125
16 *4567:B2 *4567:B1 2.93747e-05
17 *4567:B2 *227:75 0.000561103
18 *176:10 *4483:A 2.93747e-05
19 *176:10 *180:8 0.00073037
20 *176:10 *244:105 0.000382574
21 *176:10 *244:116 0.000343324
22 *176:20 *4497:B 4.67488e-05
23 *176:20 *4564:C1 7.88828e-05
24 *176:20 *190:8 0.000363665
25 *176:20 *223:103 2.64616e-05
26 *4563:B *4525:A2 0.000103633
27 *4564:A2 *176:20 0.00101803
28 *65:32 *4567:B2 3.623e-05
29 *91:8 *4546:A1 1.59094e-05
30 *96:8 *4546:A1 0
31 *111:10 *4525:A2 0
32 *112:14 *4525:A2 2.05503e-05
33 *148:12 *4567:B2 1.21972e-05
34 *148:101 *4567:B2 7.13024e-05
*RES
1 *4483:Y *176:10 48.2743 
2 *176:10 *176:20 47.9386 
3 *176:20 *4567:B2 47.135 
4 *176:20 *4525:A2 44.9393 
5 *176:10 *4546:A1 47.2593 
*END

*D_NET *177 0.000289339
*CONN
*I *4687:A I *D sky130_fd_sc_hd__buf_1
*I *4484:X O *D sky130_fd_sc_hd__xor2_1
*CAP
1 *4687:A 6.59807e-05
2 *4484:X 6.59807e-05
3 *4687:A *4524:A2 0
4 *4687:A *229:6 0
5 *4687:A *231:60 0.000157378
*RES
1 *4484:X *4687:A 48.0714 
*END

*D_NET *178 0.0114623
*CONN
*I *4588:A3 I *D sky130_fd_sc_hd__a31o_1
*I *4543:A3 I *D sky130_fd_sc_hd__a31o_1
*I *4504:A1 I *D sky130_fd_sc_hd__o21ai_1
*I *4489:A3 I *D sky130_fd_sc_hd__a32o_1
*I *4485:Y O *D sky130_fd_sc_hd__nand2_2
*CAP
1 *4588:A3 0
2 *4543:A3 2.34823e-05
3 *4504:A1 0
4 *4489:A3 0
5 *4485:Y 0.000346322
6 *178:59 0.00108789
7 *178:42 0.00176841
8 *178:24 0.000536803
9 *178:16 0.000654932
10 *178:14 0.001178
11 *178:6 0.000749157
12 *178:6 *179:86 0.000779341
13 *178:14 *4566:B1 9.48381e-06
14 *178:16 *4566:B1 4.90891e-05
15 *178:24 *4509:B1 5.7618e-05
16 *178:24 *4566:B1 1.69668e-05
17 *178:24 *244:27 0.000135726
18 *178:42 *4566:B1 0.000140259
19 *178:42 *186:10 2.25419e-05
20 *178:59 *4588:A1 0
21 *178:59 *227:26 6.27443e-05
22 *178:59 *238:16 2.31209e-05
23 *178:59 *240:21 4.99867e-05
24 *4459:A *178:42 0.000221406
25 *4493:B *178:42 1.22822e-05
26 *4493:B *178:59 3.22879e-05
27 *4502:A1 *178:24 0.000105154
28 *4565:B2 *178:42 4.5051e-05
29 *93:14 *178:6 2.25809e-05
30 *147:12 *178:59 0.000149045
31 *147:14 *178:59 5.31444e-05
32 *148:48 *178:6 0.00124975
33 *148:58 *178:14 0.000416469
34 *152:6 *178:42 5.10805e-05
35 *154:64 *178:14 0
36 *158:86 *178:6 0.000325796
37 *160:22 *178:24 6.22372e-05
38 *168:18 *178:59 0.000436773
39 *169:16 *178:24 0.000351519
40 *169:22 *178:14 0
41 *169:22 *178:16 0
42 *169:22 *178:24 0
43 *169:87 *178:59 0
44 *173:47 *178:59 0.000206483
45 *174:10 *178:6 2.93845e-05
*RES
1 *4485:Y *178:6 38.3907 
2 *178:6 *178:14 22.7264 
3 *178:14 *178:16 2.25786 
4 *178:16 *178:24 27.3457 
5 *178:24 *4489:A3 23 
6 *178:16 *4504:A1 38 
7 *178:14 *178:42 25.1707 
8 *178:42 *4543:A3 23.4971 
9 *178:42 *178:59 35.735 
10 *178:59 *4588:A3 38 
*END

*D_NET *179 0.0268909
*CONN
*I *4488:B I *D sky130_fd_sc_hd__nor2_1
*I *4533:B1 I *D sky130_fd_sc_hd__a21o_1
*I *4568:B1 I *D sky130_fd_sc_hd__a31o_1
*I *4561:A1 I *D sky130_fd_sc_hd__a221o_1
*I *4565:A2 I *D sky130_fd_sc_hd__a221o_1
*I *4501:A2 I *D sky130_fd_sc_hd__o221a_1
*I *4556:A3 I *D sky130_fd_sc_hd__o32a_1
*I *4537:A2 I *D sky130_fd_sc_hd__a211o_1
*I *4486:X O *D sky130_fd_sc_hd__and2b_4
*CAP
1 *4488:B 0.0010884
2 *4533:B1 0
3 *4568:B1 0
4 *4561:A1 7.58286e-05
5 *4565:A2 0
6 *4501:A2 0.000166438
7 *4556:A3 0.000202725
8 *4537:A2 0
9 *4486:X 0.000110187
10 *179:112 0.000651708
11 *179:99 0.000814847
12 *179:86 0.000535071
13 *179:78 0.000818801
14 *179:71 0.000398852
15 *179:63 0.00106187
16 *179:59 0.00184253
17 *179:42 0.000937147
18 *179:25 0.000851311
19 *179:12 0.000805027
20 *179:6 0.000749805
21 *4488:B *184:23 0.000166987
22 *4488:B *201:8 4.37033e-05
23 *4501:A2 *180:59 9.88574e-06
24 *4501:A2 *192:44 4.95081e-05
25 *4501:A2 *193:28 5.50106e-05
26 *4501:A2 *193:41 5.50049e-05
27 *4556:A3 *4556:B1 6.86717e-05
28 *4556:A3 *223:8 0.000301116
29 *4556:A3 *244:61 1.95443e-05
30 *4561:A1 *196:16 2.42783e-05
31 *179:6 *192:29 0.000226306
32 *179:12 *244:35 3.47781e-05
33 *179:25 *4513:A2 0.000345439
34 *179:25 *4528:B1 0.000268074
35 *179:25 *180:50 8.82787e-05
36 *179:25 *184:31 0.000218943
37 *179:25 *185:33 1.89075e-05
38 *179:25 *191:12 7.10533e-05
39 *179:25 *244:35 5.3304e-05
40 *179:25 *244:61 0
41 *179:42 *192:29 0.00138598
42 *179:42 *192:44 5.50049e-05
43 *179:42 *193:41 1.17256e-05
44 *179:42 *226:46 0
45 *179:42 *241:14 2.4754e-05
46 *179:59 *184:23 0.000522815
47 *179:59 *193:41 0.000103106
48 *179:63 *186:73 0.000242563
49 *179:71 *4566:B1 0.00016279
50 *179:78 *185:49 0
51 *179:78 *186:73 4.96264e-05
52 *179:78 *228:28 0
53 *179:86 *222:65 0.000423308
54 *179:99 *185:49 0
55 *179:99 *185:68 0
56 *179:99 *230:35 2.49836e-05
57 *179:112 *185:68 0
58 *179:112 *196:27 0
59 *179:112 *222:35 0.000218493
60 *179:112 *231:10 0.000110913
61 *4518:A1 *179:42 3.91386e-05
62 *4549:B1 *179:112 0.000311554
63 *4561:A2 *4561:A1 4.00259e-06
64 *4565:B1 *179:71 0
65 *4566:A3 *179:71 3.51496e-05
66 *62:10 *179:86 0.000598919
67 *65:8 *179:12 1.69668e-05
68 *65:32 *179:25 2.9564e-05
69 *65:50 *179:63 0.000528158
70 *79:10 *179:25 6.79006e-05
71 *84:14 *179:112 4.79544e-05
72 *87:10 *179:25 0.000174427
73 *88:12 *179:25 0.000734297
74 *112:22 *179:71 0.000994134
75 *114:6 *179:71 0.000865411
76 *148:33 *179:59 0.000310647
77 *148:33 *179:63 0.000321581
78 *148:42 *179:63 0.000696537
79 *148:42 *179:78 0.000336072
80 *148:42 *179:99 5.01986e-05
81 *148:88 *179:99 0.000136486
82 *150:12 *4556:A3 8.06804e-06
83 *151:32 *179:6 0.000110389
84 *151:42 *179:6 9.84794e-05
85 *151:42 *179:42 0.00164845
86 *151:70 *179:12 7.8128e-05
87 *158:86 *179:86 0.000781048
88 *158:148 *179:42 8.25811e-05
89 *158:148 *179:59 0.000209111
90 *160:55 *179:25 0.000139657
91 *169:22 *179:86 0
92 *170:44 *179:112 0
93 *175:48 *179:42 7.88828e-05
94 *175:56 *179:12 0
95 *175:56 *179:42 1.22822e-05
96 *175:65 *179:25 0
97 *178:6 *179:86 0.000779341
*RES
1 *4486:X *179:6 26.48 
2 *179:6 *179:12 32.9621 
3 *179:12 *4537:A2 23 
4 *179:12 *179:25 49.3471 
5 *179:25 *4556:A3 27.4536 
6 *179:6 *179:42 36.7086 
7 *179:42 *4501:A2 41.0243 
8 *179:42 *179:59 23.8243 
9 *179:59 *179:63 29.2307 
10 *179:63 *179:71 29.3654 
11 *179:71 *4565:A2 23 
12 *179:63 *179:78 4.72286 
13 *179:78 *179:86 46.965 
14 *179:86 *4561:A1 39.1186 
15 *179:78 *179:99 3.31429 
16 *179:99 *4568:B1 38 
17 *179:99 *179:112 28.3814 
18 *179:112 *4533:B1 23 
19 *179:59 *4488:B 41.9121 
*END

*D_NET *180 0.0309637
*CONN
*I *4527:B I *D sky130_fd_sc_hd__nand2_1
*I *4582:B I *D sky130_fd_sc_hd__nor2_1
*I *4553:A3 I *D sky130_fd_sc_hd__a311o_1
*I *4551:C I *D sky130_fd_sc_hd__and4_1
*I *4528:A2 I *D sky130_fd_sc_hd__a21o_1
*I *4536:A2 I *D sky130_fd_sc_hd__a31oi_1
*I *4550:B I *D sky130_fd_sc_hd__and3_4
*I *4546:A2 I *D sky130_fd_sc_hd__a31o_1
*I *4487:Y O *D sky130_fd_sc_hd__nand2b_4
*CAP
1 *4527:B 0
2 *4582:B 0
3 *4553:A3 4.49252e-05
4 *4551:C 0.000127492
5 *4528:A2 5.49935e-05
6 *4536:A2 0
7 *4550:B 0
8 *4546:A2 3.60862e-05
9 *4487:Y 0.00154567
10 *180:106 0.000460381
11 *180:93 0.000703443
12 *180:65 0.000172417
13 *180:63 0.00209006
14 *180:59 0.00472452
15 *180:50 0.00447819
16 *180:38 0.00037815
17 *180:25 0.000886256
18 *180:8 0.00134156
19 *180:6 0.00079737
20 *4528:A2 *4528:B1 4.00259e-06
21 *180:8 *4557:C 0.00046596
22 *180:8 *223:67 0
23 *180:8 *224:40 0
24 *180:8 *237:24 0.000355699
25 *180:8 *244:94 0.000125894
26 *180:8 *244:105 2.24151e-05
27 *180:25 *231:39 7.53303e-06
28 *180:25 *244:116 0.00010404
29 *180:38 *222:45 0.000383251
30 *180:38 *227:65 4.6318e-06
31 *180:38 *231:39 0.000932176
32 *180:50 *4455:A 8.85483e-05
33 *180:50 *4499:A2 1.02949e-05
34 *180:50 *4528:B1 2.65879e-05
35 *180:50 *192:14 0.000101498
36 *180:50 *192:23 0.00108782
37 *180:50 *223:67 1.76557e-05
38 *180:50 *224:40 9.45591e-05
39 *180:50 *244:35 4.5051e-05
40 *180:59 *185:6 0.000470327
41 *180:59 *192:44 0.000119313
42 *180:59 *193:21 2.65879e-05
43 *180:59 *194:6 0.00113576
44 *180:59 *239:14 1.5769e-05
45 *180:59 *239:24 1.59094e-05
46 *180:63 *230:10 0
47 *180:63 *230:14 0
48 *180:63 *243:91 0
49 *4500:B *4528:A2 0
50 *4500:B *180:59 0.000828826
51 *4501:A2 *180:59 9.88574e-06
52 *4505:A1 *180:106 6.16531e-05
53 *4505:A2 *180:63 0.000243587
54 *4546:A1 *180:8 0.000512338
55 *4546:A1 *180:25 3.70094e-05
56 *4550:C *180:25 0.000354317
57 *4551:A *4551:C 0.000252161
58 *4551:A *4553:A3 4.41507e-05
59 *4553:B1 *4553:A3 0
60 *4554:B *4551:C 4.94192e-05
61 *4560:B1 *180:38 4.99753e-06
62 *4582:A *180:93 0.000312348
63 *77:22 *180:38 0.000224336
64 *90:12 *180:25 0.000181125
65 *92:10 *180:63 0
66 *95:10 *180:8 4.21594e-06
67 *95:10 *180:25 5.56092e-05
68 *99:10 *180:25 0.000146822
69 *99:10 *180:38 5.48354e-05
70 *129:6 *180:93 1.59094e-05
71 *155:20 *180:59 0.000719404
72 *155:20 *180:106 0.000441978
73 *155:30 *180:59 0.000112834
74 *158:43 *4553:A3 0
75 *158:130 *180:38 0
76 *165:14 *4551:C 0.000294135
77 *165:14 *4553:A3 5.25534e-05
78 *165:24 *4551:C 2.93845e-05
79 *169:69 *180:93 0
80 *173:10 *180:63 0.000203407
81 *173:30 *180:63 0.00033199
82 *173:47 *180:63 0.000259937
83 *175:10 *180:106 8.04908e-05
84 *175:46 *180:63 0.000126066
85 *175:46 *180:106 0
86 *175:98 *180:63 0.000402121
87 *175:98 *180:93 0.000194449
88 *176:10 *180:8 0.00073037
89 *179:25 *180:50 8.82787e-05
*RES
1 *4487:Y *180:6 38 
2 *180:6 *180:8 23.0343 
3 *180:8 *4546:A2 38.6214 
4 *180:8 *180:25 26.8071 
5 *180:25 *4550:B 23 
6 *180:25 *180:38 45.5771 
7 *180:38 *4536:A2 23 
8 *4487:Y *180:50 46.9664 
9 *180:50 *4528:A2 24.2014 
10 *180:50 *180:59 46.835 
11 *180:59 *180:63 44.3729 
12 *180:63 *180:65 15 
13 *180:65 *4551:C 29.3386 
14 *180:65 *4553:A3 24.5743 
15 *180:63 *180:93 28.2157 
16 *180:93 *4582:B 23 
17 *180:59 *180:106 38.5757 
18 *180:106 *4527:B 23 
*END

*D_NET *181 0.00142755
*CONN
*I *4508:A1 I *D sky130_fd_sc_hd__o22a_1
*I *4489:B1 I *D sky130_fd_sc_hd__a32o_1
*I *4488:Y O *D sky130_fd_sc_hd__nor2_1
*CAP
1 *4508:A1 0.000247252
2 *4489:B1 0
3 *4488:Y 7.0978e-05
4 *181:14 0.000143073
5 *181:6 0.000461303
6 *4508:A1 *4508:A2 5.67058e-05
7 *4508:A1 *201:8 7.42621e-05
8 *181:6 *4488:A 5.50049e-05
9 *181:6 *201:8 4.95081e-05
10 *181:14 *4488:A 0.000222123
11 *181:14 *200:10 0
12 *181:14 *230:44 1.14452e-05
13 *181:14 *244:27 1.19077e-05
14 *4489:A2 *181:14 2.39868e-05
15 *158:64 *181:14 0
*RES
1 *4488:Y *181:6 24.5743 
2 *181:6 *181:14 33.2418 
3 *181:14 *4489:B1 23 
4 *181:6 *4508:A1 28.075 
*END

*D_NET *182 0.000556228
*CONN
*I *4502:A2 I *D sky130_fd_sc_hd__o21ai_1
*I *4489:X O *D sky130_fd_sc_hd__a32o_1
*CAP
1 *4502:A2 0.000165414
2 *4489:X 0.000165414
3 *4502:A2 *244:27 0.000225399
*RES
1 *4489:X *4502:A2 48.5271 
*END

*D_NET *183 0.00829028
*CONN
*I *4577:B I *D sky130_fd_sc_hd__or2_1
*I *4491:B I *D sky130_fd_sc_hd__or2_4
*I *4516:B I *D sky130_fd_sc_hd__or4b_1
*I *4490:X O *D sky130_fd_sc_hd__and2b_4
*CAP
1 *4577:B 3.32358e-05
2 *4491:B 0
3 *4516:B 0.000122749
4 *4490:X 0.000178207
5 *183:31 0.00013434
6 *183:18 0.00146142
7 *183:12 0.00126929
8 *183:8 0.000209933
9 *183:8 *4490:A_N 0.000110913
10 *183:8 *243:16 5.94125e-05
11 *183:8 *243:18 8.4047e-05
12 *183:18 *243:46 0.000476471
13 *183:18 *244:10 9.84794e-05
14 *183:31 *185:40 7.21237e-05
15 *4585:S *4577:B 1.38616e-05
16 *4585:S *183:12 1.24376e-05
17 *4638:A *183:18 9.84851e-05
18 *62:10 *183:31 0
19 *130:28 *4516:B 3.53051e-05
20 *130:28 *4577:B 5.7011e-05
21 *130:28 *183:12 1.41129e-05
22 *130:28 *183:18 0.00188804
23 *131:8 *183:12 8.264e-05
24 *131:8 *183:18 0.000228909
25 *155:65 *183:8 0
26 *160:22 *183:18 0.00154886
*RES
1 *4490:X *183:8 41.3143 
2 *183:8 *183:12 16.0979 
3 *183:12 *183:18 41.1593 
4 *183:18 *4516:B 24.5743 
5 *183:18 *183:31 32.2579 
6 *183:31 *4491:B 23 
7 *183:12 *4577:B 24.3257 
*END

*D_NET *184 0.00527336
*CONN
*I *4530:A1 I *D sky130_fd_sc_hd__o211a_1
*I *4538:A1 I *D sky130_fd_sc_hd__a32o_1
*I *4494:A2 I *D sky130_fd_sc_hd__o221a_1
*I *4491:X O *D sky130_fd_sc_hd__or2_4
*CAP
1 *4530:A1 2.0995e-05
2 *4538:A1 0
3 *4494:A2 0.000137631
4 *4491:X 0.000258205
5 *184:31 0.000191565
6 *184:23 0.00107329
7 *184:10 0.00125656
8 *4494:A2 *185:23 0
9 *4494:A2 *186:73 0.000105943
10 *4530:A1 *4530:A2 1.14154e-05
11 *184:10 *4491:A 5.67058e-05
12 *184:10 *185:23 0
13 *184:10 *185:27 9.84851e-05
14 *184:10 *186:73 0.000181044
15 *184:23 *4530:A2 0.000731699
16 *184:23 *188:6 5.12254e-05
17 *184:31 *4530:A2 2.93747e-05
18 *184:31 *185:33 1.14452e-05
19 *4488:B *184:23 0.000166987
20 *81:8 *184:23 5.70419e-05
21 *118:12 *184:10 2.18506e-05
22 *172:29 *4494:A2 4.77164e-06
23 *175:65 *184:31 6.53712e-05
24 *179:25 *184:31 0.000218943
25 *179:59 *184:23 0.000522815
*RES
1 *4491:X *184:10 44.1729 
2 *184:10 *4494:A2 40.9621 
3 *184:10 *184:23 36.1079 
4 *184:23 *184:31 34.5364 
5 *184:31 *4538:A1 23 
6 *184:23 *4530:A1 23.4971 
*END

*D_NET *185 0.0181009
*CONN
*I *4551:D I *D sky130_fd_sc_hd__and4_1
*I *4503:B I *D sky130_fd_sc_hd__nand2_4
*I *4552:A1 I *D sky130_fd_sc_hd__a31o_1
*I *4569:B2 I *D sky130_fd_sc_hd__a2bb2o_1
*I *4516:D_N I *D sky130_fd_sc_hd__or4b_1
*I *4538:A2 I *D sky130_fd_sc_hd__a32o_1
*I *4494:C1 I *D sky130_fd_sc_hd__o221a_1
*I *4492:X O *D sky130_fd_sc_hd__and2b_4
*CAP
1 *4551:D 0
2 *4503:B 0
3 *4552:A1 0
4 *4569:B2 0.000357901
5 *4516:D_N 0
6 *4538:A2 0
7 *4494:C1 0.00029123
8 *4492:X 0.000284299
9 *185:89 0.000206861
10 *185:81 0.000505283
11 *185:74 8.0294e-05
12 *185:68 0.00123508
13 *185:49 0.00202173
14 *185:40 0.00101962
15 *185:33 7.53973e-05
16 *185:27 0.00168429
17 *185:23 0.00223852
18 *185:10 0.000770643
19 *185:6 0.000346247
20 *4494:C1 *187:6 9.84794e-05
21 *4494:C1 *194:6 0.000124906
22 *4569:B2 *4568:A1 4.01634e-05
23 *4569:B2 *4569:A2_N 0.000137651
24 *4569:B2 *227:57 0.000256688
25 *185:6 *4510:B1 0.000274078
26 *185:6 *187:6 0.00053323
27 *185:6 *194:6 0.0005784
28 *185:27 *4491:A 9.6103e-05
29 *185:40 *186:73 0
30 *185:49 *222:24 0
31 *185:49 *222:33 0
32 *185:49 *228:28 0
33 *185:68 *222:33 0
34 *185:68 *231:10 0
35 *185:89 *196:6 0.000228909
36 *4494:A2 *185:23 0
37 *4515:B *185:49 9.39518e-05
38 *4549:A2 *185:74 0
39 *4552:B1 *185:81 1.22822e-05
40 *4554:B *185:81 0.000111697
41 *4555:B1 *185:68 1.79175e-05
42 *62:10 *185:23 0
43 *62:10 *185:40 0
44 *62:10 *185:49 0
45 *65:40 *185:40 4.21594e-06
46 *65:40 *185:49 7.52753e-05
47 *65:50 *185:40 3.2457e-05
48 *88:12 *185:33 8.62876e-05
49 *99:37 *185:68 0.000293749
50 *103:8 *185:68 0.000238623
51 *103:8 *185:81 0.000172996
52 *104:10 *185:68 0.000350606
53 *118:12 *185:27 6.27443e-05
54 *148:23 *185:27 0.00176886
55 *148:88 *4569:B2 0.00026025
56 *155:20 *185:6 0.000187129
57 *155:30 *185:6 0.00010109
58 *165:24 *185:89 1.01436e-05
59 *172:29 *185:10 0
60 *175:65 *185:33 6.33511e-05
61 *179:25 *185:33 1.89075e-05
62 *179:78 *185:49 0
63 *179:99 *185:49 0
64 *179:99 *185:68 0
65 *179:112 *185:68 0
66 *180:59 *185:6 0.000470327
67 *183:31 *185:40 7.21237e-05
68 *184:10 *185:23 0
69 *184:10 *185:27 9.84851e-05
70 *184:31 *185:33 1.14452e-05
*RES
1 *4492:X *185:6 38.3907 
2 *185:6 *185:10 15.8493 
3 *185:10 *4494:C1 43.4064 
4 *185:10 *185:23 7.18786 
5 *185:23 *185:27 39.9193 
6 *185:27 *185:33 31.9057 
7 *185:33 *4538:A2 23 
8 *185:23 *185:40 4.01857 
9 *185:40 *4516:D_N 38 
10 *185:40 *185:49 13.5264 
11 *185:49 *4569:B2 46.2443 
12 *185:49 *185:68 31.7164 
13 *185:68 *185:74 31.2014 
14 *185:74 *4552:A1 23 
15 *185:68 *185:81 4.90929 
16 *185:81 *185:89 34.4329 
17 *185:89 *4503:B 23 
18 *185:81 *4551:D 23 
*END

*D_NET *186 0.0140281
*CONN
*I *4494:B1 I *D sky130_fd_sc_hd__o221a_1
*I *4563:A_N I *D sky130_fd_sc_hd__nand2b_1
*I *4556:B1 I *D sky130_fd_sc_hd__o32a_1
*I *4513:A2 I *D sky130_fd_sc_hd__a311o_1
*I *4493:Y O *D sky130_fd_sc_hd__nand2_2
*CAP
1 *4494:B1 0
2 *4563:A_N 0
3 *4556:B1 0.000113644
4 *4513:A2 0.000184024
5 *4493:Y 0.000139194
6 *186:73 0.000721897
7 *186:62 0.000337155
8 *186:24 0.000366222
9 *186:22 0.00221494
10 *186:18 0.00339414
11 *186:10 0.00100221
12 *4556:B1 *244:61 1.82963e-05
13 *186:10 *227:26 0.000313249
14 *186:10 *236:8 0.000136486
15 *186:18 *218:8 1.32289e-05
16 *186:18 *222:8 0.000111109
17 *186:18 *228:28 4.5051e-05
18 *186:22 *4525:C1 1.24376e-05
19 *186:22 *190:22 4.38068e-06
20 *186:22 *218:8 2.49501e-05
21 *186:73 *4491:A 6.92421e-05
22 *186:73 *228:28 5.05552e-05
23 *186:73 *228:30 0.000104642
24 *4459:A *186:10 7.73389e-05
25 *4494:A2 *186:73 0.000105943
26 *4515:B *186:18 0.000409017
27 *4525:A2 *186:62 5.50106e-05
28 *4525:B1 *4513:A2 0.000180823
29 *4525:B1 *186:24 9.7937e-05
30 *4525:B1 *186:62 3.49995e-05
31 *4556:A3 *4556:B1 6.86717e-05
32 *4563:B *186:62 5.3304e-05
33 *4572:A1 *186:22 0.000182826
34 *4572:A2 *186:22 9.8971e-06
35 *4572:B1 *186:22 3.22879e-05
36 *4573:A1 *186:22 9.67842e-05
37 *4573:A2 *186:22 2.02872e-05
38 *65:32 *4513:A2 0.00024521
39 *65:50 *186:73 0.000761053
40 *66:8 *186:18 0.000288279
41 *88:12 *4513:A2 3.14237e-05
42 *88:12 *186:24 4.7568e-05
43 *88:12 *186:62 1.86176e-05
44 *105:10 *186:62 2.24608e-05
45 *112:14 *186:62 0.000112459
46 *150:12 *4556:B1 0.000136738
47 *152:6 *186:10 9.75779e-05
48 *154:47 *186:10 3.47781e-05
49 *154:51 *186:10 0.000110913
50 *154:64 *186:18 0.000477628
51 *178:42 *186:10 2.25419e-05
52 *179:25 *4513:A2 0.000345439
53 *179:63 *186:73 0.000242563
54 *179:78 *186:73 4.96264e-05
55 *184:10 *186:73 0.000181044
56 *185:40 *186:73 0
*RES
1 *4493:Y *186:10 43.3857 
2 *186:10 *186:18 31.9857 
3 *186:18 *186:22 37.5371 
4 *186:22 *186:24 1.55357 
5 *186:24 *4513:A2 43.7793 
6 *186:24 *4556:B1 40.8586 
7 *186:22 *186:62 33.2728 
8 *186:62 *4563:A_N 23 
9 *186:18 *186:73 48.8086 
10 *186:73 *4494:B1 23 
*END

*D_NET *187 0.00113604
*CONN
*I *4510:A1 I *D sky130_fd_sc_hd__o31a_1
*I *4494:X O *D sky130_fd_sc_hd__o221a_1
*CAP
1 *4510:A1 0
2 *4494:X 0.000186515
3 *187:6 0.000186515
4 *187:6 *194:6 4.95081e-05
5 *4494:C1 *187:6 9.84794e-05
6 *62:8 *187:6 8.1796e-05
7 *185:6 *187:6 0.00053323
*RES
1 *4494:X *187:6 29.815 
2 *187:6 *4510:A1 23 
*END

*D_NET *188 0.00293789
*CONN
*I *4501:B1 I *D sky130_fd_sc_hd__o221a_1
*I *4530:A2 I *D sky130_fd_sc_hd__o211a_1
*I *4495:Y O *D sky130_fd_sc_hd__nor2_1
*CAP
1 *4501:B1 0
2 *4530:A2 0.000796287
3 *4495:Y 5.85847e-05
4 *188:21 8.36378e-05
5 *188:6 0.00093851
6 *188:21 *193:41 0.000160723
7 *188:21 *226:46 7.64309e-05
8 *4530:A1 *4530:A2 1.14154e-05
9 *184:23 *4530:A2 0.000731699
10 *184:23 *188:6 5.12254e-05
11 *184:31 *4530:A2 2.93747e-05
*RES
1 *4495:Y *188:6 24.0979 
2 *188:6 *4530:A2 38.8879 
3 *188:6 *188:21 32.2579 
4 *188:21 *4501:B1 23 
*END

*D_NET *189 0.00458248
*CONN
*I *4576:A2 I *D sky130_fd_sc_hd__a31o_1
*I *4574:B I *D sky130_fd_sc_hd__nor2_1
*I *4570:A1 I *D sky130_fd_sc_hd__a22o_1
*I *4507:B1 I *D sky130_fd_sc_hd__o22a_1
*I *4496:Y O *D sky130_fd_sc_hd__nand2_2
*CAP
1 *4576:A2 5.00221e-05
2 *4574:B 2.0995e-05
3 *4570:A1 0
4 *4507:B1 0.000118657
5 *4496:Y 0
6 *189:34 0.000782799
7 *189:14 0.000310735
8 *189:4 0.00090386
9 *4507:B1 *4507:B2 1.14154e-05
10 *4507:B1 *199:16 0.000147144
11 *4507:B1 *199:24 3.22879e-05
12 *4507:B1 *244:25 1.76557e-05
13 *4574:B *199:56 1.14154e-05
14 *4576:A2 *199:56 0.000123233
15 *4576:A2 *234:18 1.76557e-05
16 *189:14 *4570:B2 0.000135557
17 *189:14 *199:10 2.96369e-05
18 *189:14 *230:68 7.04859e-05
19 *189:14 *244:25 2.98648e-05
20 *189:34 *199:56 0.000101853
21 *189:34 *230:68 1.24376e-05
22 *189:34 *243:37 0.000270682
23 *4490:B *4574:B 0
24 *4490:B *189:14 5.3304e-05
25 *4490:B *189:34 0.000798447
26 *118:8 *189:14 0
27 *123:8 *4576:A2 7.73389e-05
28 *147:22 *189:34 5.90675e-06
29 *169:16 *4507:B1 0.000350606
30 *169:16 *189:14 9.84794e-05
*RES
1 *4496:Y *189:4 23 
2 *189:4 *189:14 34.3293 
3 *189:14 *4507:B1 27.4536 
4 *189:14 *4570:A1 23 
5 *189:4 *189:34 15.9086 
6 *189:34 *4574:B 23.4971 
7 *189:34 *4576:A2 25.0507 
*END

*D_NET *190 0.00859887
*CONN
*I *4564:A1 I *D sky130_fd_sc_hd__o211ai_1
*I *4541:B I *D sky130_fd_sc_hd__or3b_1
*I *4593:D I *D sky130_fd_sc_hd__or4_1
*I *4497:Y O *D sky130_fd_sc_hd__nor2_1
*CAP
1 *4564:A1 0
2 *4541:B 0
3 *4593:D 0
4 *4497:Y 0.00059004
5 *190:37 0.000864375
6 *190:26 0.000506898
7 *190:22 0.00108378
8 *190:12 0.00163499
9 *190:8 0.000783775
10 *190:8 *4497:B 9.41704e-05
11 *190:12 *227:65 0
12 *190:26 *191:46 0.000196518
13 *190:37 *227:65 0
14 *4525:A2 *190:12 0
15 *4525:A2 *190:22 2.6113e-05
16 *4559:A2 *190:37 2.32101e-05
17 *4563:B *190:22 0.000304109
18 *4563:B *190:26 0.000392333
19 *4593:A *190:26 0.000360734
20 *88:12 *190:26 0.000502594
21 *91:8 *190:37 9.41704e-05
22 *96:8 *190:37 3.22964e-05
23 *99:33 *190:26 0.000139657
24 *111:10 *190:12 4.48671e-05
25 *111:10 *190:22 4.05309e-05
26 *158:104 *190:37 0.000278271
27 *160:68 *190:26 0.000237394
28 *175:65 *190:26 0
29 *176:20 *190:8 0.000363665
30 *186:22 *190:22 4.38068e-06
*RES
1 *4497:Y *190:8 35.0764 
2 *190:8 *190:12 18.3143 
3 *190:12 *190:22 39.8393 
4 *190:22 *190:26 30.6393 
5 *190:26 *4593:D 23 
6 *190:12 *190:37 27.6564 
7 *190:37 *4541:B 23 
8 *190:8 *4564:A1 23 
*END

*D_NET *191 0.00901242
*CONN
*I *4538:A3 I *D sky130_fd_sc_hd__a32o_1
*I *4535:B I *D sky130_fd_sc_hd__nand2_1
*I *4512:A2 I *D sky130_fd_sc_hd__a21oi_1
*I *4513:A3 I *D sky130_fd_sc_hd__a311o_1
*I *4498:X O *D sky130_fd_sc_hd__or2_4
*CAP
1 *4538:A3 0.000135415
2 *4535:B 0
3 *4512:A2 0
4 *4513:A3 0.000115344
5 *4498:X 0.000356655
6 *191:46 0.00128221
7 *191:35 0.000318087
8 *191:25 0.00168815
9 *191:12 0.000440453
10 *191:8 0.000729331
11 *4538:A3 *193:12 9.22382e-05
12 *4538:A3 *244:27 0.000207603
13 *191:8 *4498:A 9.84794e-05
14 *191:8 *223:14 0.00021677
15 *191:8 *244:27 3.17634e-05
16 *191:12 *244:61 0.000180834
17 *191:25 *244:61 5.57022e-05
18 *191:35 *223:14 6.16643e-05
19 *191:35 *224:10 0.000137651
20 *191:35 *228:70 2.45549e-06
21 *191:46 *244:61 0.000150371
22 *4513:A1 *4513:A3 1.59094e-05
23 *4513:B1 *191:12 2.26497e-05
24 *4513:B1 *191:25 2.5607e-05
25 *4525:B1 *191:46 0.000320484
26 *4563:B *191:46 0.000204655
27 *65:32 *191:12 0.000160717
28 *65:32 *191:25 0.000158357
29 *65:32 *191:46 0.00014504
30 *76:8 *191:46 0
31 *88:12 *191:46 0
32 *94:10 *191:46 0.000146652
33 *96:14 *191:46 1.69771e-05
34 *97:12 *191:46 0.000797979
35 *99:33 *191:46 6.22475e-05
36 *105:10 *191:46 0
37 *150:12 *191:46 0.000134984
38 *151:70 *191:35 0.000137249
39 *160:55 *4513:A3 9.41704e-05
40 *175:65 *191:46 0
41 *179:25 *191:12 7.10533e-05
42 *190:26 *191:46 0.000196518
*RES
1 *4498:X *191:8 28.8829 
2 *191:8 *191:12 20.4271 
3 *191:12 *4513:A3 40.0714 
4 *191:12 *191:25 2.25786 
5 *191:25 *191:35 49.9093 
6 *191:35 *4512:A2 23 
7 *191:25 *191:46 44.5593 
8 *191:46 *4535:B 23 
9 *191:8 *4538:A3 27.1429 
*END

*D_NET *192 0.0113565
*CONN
*I *4567:B1 I *D sky130_fd_sc_hd__o32a_1
*I *4501:B2 I *D sky130_fd_sc_hd__o221a_1
*I *4519:B1 I *D sky130_fd_sc_hd__a21o_1
*I *4584:A0 I *D sky130_fd_sc_hd__mux2_4
*I *4499:Y O *D sky130_fd_sc_hd__o21ai_2
*CAP
1 *4567:B1 0.000327124
2 *4501:B2 0
3 *4519:B1 0
4 *4584:A0 0
5 *4499:Y 0
6 *192:44 0.000254702
7 *192:29 0.000778011
8 *192:23 0.00102849
9 *192:14 0.000801671
10 *192:4 0.000979729
11 *4567:B1 *223:25 0.000460568
12 *4567:B1 *223:27 2.46345e-05
13 *4567:B1 *227:75 0.000431843
14 *192:14 *223:49 5.79559e-05
15 *192:14 *223:82 6.17437e-06
16 *192:14 *224:40 2.80918e-05
17 *192:14 *231:75 0.00011218
18 *192:23 *4455:A 2.65505e-05
19 *192:23 *223:49 0.00106252
20 *192:29 *223:27 0.000187986
21 *192:29 *241:14 5.50106e-05
22 *192:44 *193:21 4.21378e-05
23 *192:44 *193:28 0.000181919
24 *192:44 *193:41 4.34745e-05
25 *192:44 *241:14 0.0001441
26 *4500:B *192:44 0.000181125
27 *4501:A2 *192:44 4.95081e-05
28 *4567:B2 *4567:B1 2.93747e-05
29 *4584:S *192:14 7.44257e-05
30 *65:8 *4567:B1 2.71291e-05
31 *65:8 *192:29 8.68903e-05
32 *65:19 *4567:B1 8.56839e-05
33 *69:10 *192:44 0.000135547
34 *148:8 *4567:B1 0
35 *148:12 *4567:B1 5.50049e-05
36 *148:101 *4567:B1 0
37 *151:28 *192:14 0.000104123
38 *175:56 *192:29 0.000516932
39 *179:6 *192:29 0.000226306
40 *179:42 *192:29 0.00138598
41 *179:42 *192:44 5.50049e-05
42 *180:50 *192:14 0.000101498
43 *180:50 *192:23 0.00108782
44 *180:59 *192:44 0.000119313
*RES
1 *4499:Y *192:4 23 
2 *192:4 *192:14 45.3907 
3 *192:14 *4584:A0 23 
4 *192:4 *192:23 27.0557 
5 *192:23 *192:29 35.3829 
6 *192:29 *4519:B1 23 
7 *192:29 *192:44 38.0164 
8 *192:44 *4501:B2 23 
9 *192:23 *4567:B1 47.57 
*END

*D_NET *193 0.00470086
*CONN
*I *4571:B2 I *D sky130_fd_sc_hd__a2bb2o_1
*I *4501:C1 I *D sky130_fd_sc_hd__o221a_1
*I *4520:A I *D sky130_fd_sc_hd__nand3_1
*I *4538:B1 I *D sky130_fd_sc_hd__a32o_1
*I *4500:Y O *D sky130_fd_sc_hd__nor2_2
*CAP
1 *4571:B2 0
2 *4501:C1 0
3 *4520:A 0
4 *4538:B1 0
5 *4500:Y 0
6 *193:41 0.000316845
7 *193:28 0.000394427
8 *193:21 0.000547956
9 *193:12 0.000505572
10 *193:4 0.000975946
11 *193:12 *244:27 0.000109125
12 *193:41 *226:46 0.000113485
13 *4500:B *193:21 0.000220354
14 *4501:A2 *193:28 5.50106e-05
15 *4501:A2 *193:41 5.50049e-05
16 *4520:C *193:21 9.5877e-05
17 *4538:A3 *193:12 9.22382e-05
18 *81:14 *193:12 0
19 *88:8 *193:12 0.000180218
20 *148:33 *193:41 4.334e-05
21 *155:30 *193:21 0.000110155
22 *155:45 *193:12 0.000138479
23 *158:148 *193:41 0.000177149
24 *175:65 *193:12 0
25 *179:42 *193:41 1.17256e-05
26 *179:59 *193:41 0.000103106
27 *180:59 *193:21 2.65879e-05
28 *188:21 *193:41 0.000160723
29 *192:44 *193:21 4.21378e-05
30 *192:44 *193:28 0.000181919
31 *192:44 *193:41 4.34745e-05
*RES
1 *4500:Y *193:4 23 
2 *193:4 *193:12 40.8232 
3 *193:12 *4538:B1 23 
4 *193:4 *193:21 9.69429 
5 *193:21 *4520:A 23 
6 *193:21 *193:28 2.05071 
7 *193:28 *4501:C1 23 
8 *193:28 *193:41 38.8657 
9 *193:41 *4571:B2 23 
*END

*D_NET *194 0.00244928
*CONN
*I *4510:A2 I *D sky130_fd_sc_hd__o31a_1
*I *4501:X O *D sky130_fd_sc_hd__o221a_1
*CAP
1 *4510:A2 0
2 *4501:X 0.0002294
3 *194:6 0.0002294
4 *4494:C1 *194:6 0.000124906
5 *155:30 *194:6 0.000101908
6 *180:59 *194:6 0.00113576
7 *185:6 *194:6 0.0005784
8 *187:6 *194:6 4.95081e-05
*RES
1 *4501:X *194:6 35.5321 
2 *194:6 *4510:A2 23 
*END

*D_NET *195 0.00117477
*CONN
*I *4510:A3 I *D sky130_fd_sc_hd__o31a_1
*I *4502:Y O *D sky130_fd_sc_hd__o21ai_1
*CAP
1 *4510:A3 0
2 *4502:Y 0.000451193
3 *195:10 0.000451193
4 *195:10 *4509:B1 0
5 *195:10 *202:8 0
6 *195:10 *244:27 0.000272383
7 *62:10 *195:10 0
*RES
1 *4502:Y *195:10 45.7264 
2 *195:10 *4510:A3 38 
*END

*D_NET *196 0.0146143
*CONN
*I *4589:A3 I *D sky130_fd_sc_hd__o31a_1
*I *4522:B I *D sky130_fd_sc_hd__nor2_1
*I *4569:A2_N I *D sky130_fd_sc_hd__a2bb2o_1
*I *4504:A2 I *D sky130_fd_sc_hd__o21ai_1
*I *4517:A3 I *D sky130_fd_sc_hd__o31a_1
*I *4523:D I *D sky130_fd_sc_hd__or4_1
*I *4503:Y O *D sky130_fd_sc_hd__nand2_4
*CAP
1 *4589:A3 0
2 *4522:B 1.62924e-05
3 *4569:A2_N 0.000108118
4 *4504:A2 0
5 *4517:A3 0.000174121
6 *4523:D 0.000101737
7 *4503:Y 0
8 *196:75 0.000585912
9 *196:46 0.000661813
10 *196:33 0.00127682
11 *196:27 0.000789502
12 *196:16 0.000931337
13 *196:6 0.00112706
14 *196:4 0.00110758
15 *4517:A3 *4656:A 0.000187057
16 *4517:A3 *230:35 1.4471e-05
17 *4517:A3 *243:71 2.89463e-05
18 *4569:A2_N *4568:A1 3.59635e-05
19 *4569:A2_N *4569:A1_N 5.67058e-05
20 *4569:A2_N *229:55 8.264e-05
21 *196:6 *228:6 0.000811046
22 *196:16 *228:6 7.53384e-06
23 *196:33 *230:35 0.000247267
24 *196:33 *243:71 5.90738e-05
25 *196:75 *4503:A 0.000181925
26 *196:75 *218:12 0.000302599
27 *196:75 *228:6 0.000151601
28 *196:75 *233:6 1.21972e-05
29 *196:75 *236:63 6.16439e-05
30 *4473:C *196:75 1.12487e-05
31 *4485:A *196:33 1.12487e-05
32 *4521:B1 *4517:A3 0
33 *4523:B *196:16 2.20614e-05
34 *4561:A1 *196:16 2.42783e-05
35 *4561:A2 *4522:B 1.14154e-05
36 *4561:A2 *196:6 2.4754e-05
37 *4561:A2 *196:16 0.000104597
38 *4561:B2 *196:16 2.1381e-05
39 *4569:B1 *4569:A2_N 5.50049e-05
40 *4569:B2 *4569:A2_N 0.000137651
41 *4589:B1 *196:75 1.14452e-05
42 *4628:A *196:75 5.50049e-05
43 *65:36 *196:46 0.000518506
44 *109:18 *4523:D 0.00018282
45 *109:18 *196:16 0.000748
46 *148:88 *4569:A2_N 4.05745e-05
47 *150:27 *196:33 0.00011993
48 *158:58 *196:75 0.000290624
49 *160:16 *196:75 5.62433e-06
50 *165:10 *196:75 2.60152e-05
51 *165:36 *196:75 6.32688e-05
52 *168:30 *196:46 0.00154798
53 *169:43 *196:16 6.89029e-05
54 *169:69 *196:6 0.000188564
55 *170:44 *196:27 0.000385341
56 *170:44 *196:33 0.000420119
57 *174:10 *196:27 1.01436e-05
58 *174:10 *196:33 0.00015795
59 *179:112 *196:27 0
60 *185:89 *196:6 0.000228909
*RES
1 *4503:Y *196:4 23 
2 *196:4 *196:6 15.8671 
3 *196:6 *196:16 13.34 
4 *196:16 *4523:D 25.0507 
5 *196:16 *196:27 20.4271 
6 *196:27 *196:33 11.4757 
7 *196:33 *4517:A3 41.3143 
8 *196:33 *196:46 32.2964 
9 *196:46 *4504:A2 23 
10 *196:27 *4569:A2_N 41.0036 
11 *196:6 *4522:B 23.4971 
12 *196:4 *196:75 44.4586 
13 *196:75 *4589:A3 23 
*END

*D_NET *197 0.0029458
*CONN
*I *4566:B1 I *D sky130_fd_sc_hd__a31o_1
*I *4509:B1 I *D sky130_fd_sc_hd__a21o_1
*I *4504:Y O *D sky130_fd_sc_hd__o21ai_1
*CAP
1 *4566:B1 0.000336257
2 *4509:B1 0.000411112
3 *4504:Y 0
4 *197:6 0.000747369
5 *4502:A1 *4509:B1 0.000243578
6 *4565:B1 *4566:B1 1.68611e-05
7 *4565:B2 *4566:B1 1.66607e-05
8 *4566:A3 *4566:B1 0.00010018
9 *154:51 *4509:B1 0.00038571
10 *154:51 *4566:B1 0.000115382
11 *160:22 *4509:B1 0.000136486
12 *178:14 *4566:B1 9.48381e-06
13 *178:16 *4566:B1 4.90891e-05
14 *178:24 *4509:B1 5.7618e-05
15 *178:24 *4566:B1 1.69668e-05
16 *178:42 *4566:B1 0.000140259
17 *179:71 *4566:B1 0.00016279
18 *195:10 *4509:B1 0
*RES
1 *4504:Y *197:6 38 
2 *197:6 *4509:B1 48.7093 
3 *197:6 *4566:B1 45.9129 
*END

*D_NET *198 0.000457853
*CONN
*I *4508:A2 I *D sky130_fd_sc_hd__o22a_1
*I *4505:X O *D sky130_fd_sc_hd__a31o_1
*CAP
1 *4508:A2 0.000200574
2 *4505:X 0.000200574
3 *4508:A1 *4508:A2 5.67058e-05
*RES
1 *4505:X *4508:A2 49.9564 
*END

*D_NET *199 0.00634544
*CONN
*I *4576:A3 I *D sky130_fd_sc_hd__a31o_1
*I *4575:A I *D sky130_fd_sc_hd__nand2_1
*I *4570:A2 I *D sky130_fd_sc_hd__a22o_1
*I *4507:B2 I *D sky130_fd_sc_hd__o22a_1
*I *4542:A2 I *D sky130_fd_sc_hd__o211a_1
*I *4506:Y O *D sky130_fd_sc_hd__nor2_2
*CAP
1 *4576:A3 0
2 *4575:A 0
3 *4570:A2 0
4 *4507:B2 2.0995e-05
5 *4542:A2 0
6 *4506:Y 0.00102519
7 *199:62 0.000119998
8 *199:56 0.000483789
9 *199:24 0.000441209
10 *199:16 0.000543251
11 *199:12 8.10475e-05
12 *199:10 0.000661401
13 *199:10 *4496:B 6.17437e-06
14 *199:10 *4506:B 8.6949e-05
15 *199:10 *4570:B2 0
16 *199:10 *230:81 0.000525417
17 *199:16 *244:25 0.000255642
18 *199:24 *236:25 1.14452e-05
19 *199:24 *238:24 0.000416976
20 *199:24 *244:25 0.000230604
21 *199:56 *4576:A1 0
22 *199:56 *234:18 0.00018886
23 *4490:B *199:10 4.34876e-05
24 *4490:B *199:56 0.000305037
25 *4507:B1 *4507:B2 1.14154e-05
26 *4507:B1 *199:16 0.000147144
27 *4507:B1 *199:24 3.22879e-05
28 *4574:B *199:56 1.14154e-05
29 *4576:A2 *199:56 0.000123233
30 *4581:A3 *199:62 8.51329e-05
31 *78:10 *199:10 6.07611e-06
32 *118:8 *199:10 6.58373e-05
33 *121:8 *199:62 5.86165e-05
34 *147:22 *199:10 2.80512e-05
35 *154:10 *199:62 2.76611e-06
36 *154:25 *199:62 2.09183e-05
37 *160:16 *199:24 0
38 *164:29 *199:24 0
39 *168:12 *199:62 0
40 *169:16 *199:24 6.70749e-05
41 *175:83 *199:24 0.000106506
42 *189:14 *199:10 2.96369e-05
43 *189:34 *199:56 0.000101853
*RES
1 *4506:Y *199:10 48.6264 
2 *199:10 *199:12 15 
3 *199:12 *199:16 3.50071 
4 *199:16 *199:24 41.1236 
5 *199:24 *4542:A2 23 
6 *199:16 *4507:B2 23.4971 
7 *199:12 *4570:A2 23 
8 *4506:Y *199:56 32.5286 
9 *199:56 *199:62 33.3143 
10 *199:62 *4575:A 23 
11 *199:56 *4576:A3 23 
*END

*D_NET *200 0.00233453
*CONN
*I *4508:B1 I *D sky130_fd_sc_hd__o22a_1
*I *4507:X O *D sky130_fd_sc_hd__o22a_1
*CAP
1 *4508:B1 0
2 *4507:X 0.000670446
3 *200:10 0.000670446
4 *200:10 *244:25 0.000827125
5 *4492:A_N *200:10 1.14452e-05
6 *158:64 *200:10 0.000155068
7 *181:14 *200:10 0
*RES
1 *4507:X *200:10 49.455 
2 *200:10 *4508:B1 38 
*END

*D_NET *201 0.000606583
*CONN
*I *4509:A2 I *D sky130_fd_sc_hd__a21o_1
*I *4508:X O *D sky130_fd_sc_hd__o22a_1
*CAP
1 *4509:A2 0
2 *4508:X 0.000191202
3 *201:8 0.000191202
4 *201:8 *4488:A 5.67058e-05
5 *4488:B *201:8 4.37033e-05
6 *4508:A1 *201:8 7.42621e-05
7 *181:6 *201:8 4.95081e-05
*RES
1 *4508:X *201:8 27.4536 
2 *201:8 *4509:A2 23 
*END

*D_NET *202 0.000719574
*CONN
*I *4510:B1 I *D sky130_fd_sc_hd__o31a_1
*I *4509:X O *D sky130_fd_sc_hd__a21o_1
*CAP
1 *4510:B1 0.000106077
2 *4509:X 0.000116671
3 *202:8 0.000222748
4 *185:6 *4510:B1 0.000274078
5 *195:10 *202:8 0
*RES
1 *4509:X *202:8 39.9057 
2 *202:8 *4510:B1 41.0036 
*END

*D_NET *203 0.00605525
*CONN
*I *4643:A I *D sky130_fd_sc_hd__dlygate4sd3_1
*I *4454:A0 I *D sky130_fd_sc_hd__mux2_8
*I *4597:A2 I *D sky130_fd_sc_hd__a21oi_1
*I *4596:C I *D sky130_fd_sc_hd__and3_4
*I *4617:Q O *D sky130_fd_sc_hd__dfrtp_4
*CAP
1 *4643:A 0.000289214
2 *4454:A0 0.000694644
3 *4597:A2 7.49893e-05
4 *4596:C 0
5 *4617:Q 0
6 *203:20 0.000125499
7 *203:14 0.00112768
8 *203:8 0.00169405
9 *203:6 0.000361425
10 *4454:A0 *4454:S 2.03425e-05
11 *4454:A0 *247:98 9.91798e-05
12 *4597:A2 *204:22 9.74722e-05
13 *4643:A *4453:A 0.00010959
14 *4643:A *253:10 0.000227497
15 *4643:A *255:10 0
16 *203:8 *253:10 0.000110922
17 *203:8 *255:10 0
18 *203:14 *204:22 5.12254e-05
19 *203:14 *247:98 0.000253061
20 *203:14 *253:10 0.00030643
21 *203:20 *4478:A1 0
22 *203:20 *204:22 6.42902e-05
23 *203:20 *205:24 1.14452e-05
24 *203:20 *211:21 0
25 *4598:A *203:20 0
26 *4617:RESET_B *203:14 0
27 *46:10 *4643:A 0.000336296
28 *54:8 *203:14 0
29 *139:14 *203:20 0
*RES
1 *4617:Q *203:6 38 
2 *203:6 *203:8 1.55357 
3 *203:8 *203:14 32.98 
4 *203:14 *203:20 32.61 
5 *203:20 *4596:C 23 
6 *203:14 *4597:A2 25.0507 
7 *203:8 *4454:A0 47.1971 
8 *203:6 *4643:A 45.8921 
*END

*D_NET *204 0.00749552
*CONN
*I *4478:A0 I *D sky130_fd_sc_hd__mux2_8
*I *4644:A I *D sky130_fd_sc_hd__dlygate4sd3_1
*I *4597:A1 I *D sky130_fd_sc_hd__a21oi_1
*I *4596:A I *D sky130_fd_sc_hd__and3_4
*I *4618:Q O *D sky130_fd_sc_hd__dfrtp_4
*CAP
1 *4478:A0 0.000596536
2 *4644:A 0.000237295
3 *4597:A1 0
4 *4596:A 0.000486326
5 *4618:Q 0.00036395
6 *204:54 0.00108286
7 *204:22 0.000317858
8 *204:14 0.00111894
9 *204:8 0.00140233
10 *4478:A0 *4478:A1 0.000280074
11 *4478:A0 *247:98 2.68674e-06
12 *4644:A *252:8 8.15327e-05
13 *204:14 *4597:B1 0.000573073
14 *204:14 *4610:A 9.6289e-05
15 *204:14 *213:40 0
16 *204:14 *247:64 5.55175e-05
17 *204:14 *250:8 0.000197479
18 *204:14 *252:8 0.000114656
19 *204:22 *4478:A1 0
20 *204:22 *205:24 1.14452e-05
21 *204:54 *4478:A1 0
22 *204:54 *235:12 4.23714e-05
23 *204:54 *256:12 0.000107661
24 *4597:A2 *204:22 9.74722e-05
25 *55:10 *4644:A 3.3123e-05
26 *55:10 *204:14 7.03766e-05
27 *149:8 *204:54 1.01436e-05
28 *203:14 *204:22 5.12254e-05
29 *203:20 *204:22 6.42902e-05
*RES
1 *4618:Q *204:8 44.3386 
2 *204:8 *204:14 31.5921 
3 *204:14 *204:22 35.3857 
4 *204:22 *4596:A 23 
5 *204:14 *4597:A1 23 
6 *204:8 *4644:A 43.0129 
7 *4596:A *204:54 45.395 
8 *204:54 *4478:A0 46.2443 
*END

*D_NET *205 0.00386264
*CONN
*I *4642:A I *D sky130_fd_sc_hd__dlygate4sd3_1
*I *4596:B I *D sky130_fd_sc_hd__and3_4
*I *4456:A0 I *D sky130_fd_sc_hd__mux2_1
*I *4619:Q O *D sky130_fd_sc_hd__dfrtp_1
*CAP
1 *4642:A 0.000176542
2 *4596:B 0
3 *4456:A0 0
4 *4619:Q 0.000196843
5 *205:24 0.000364335
6 *205:16 0.00127208
7 *205:8 0.00128113
8 *4642:A *4611:A 5.50049e-05
9 *4642:A *247:64 0
10 *205:16 *213:8 0.000141326
11 *205:16 *247:64 0
12 *205:24 *4456:S 2.4754e-05
13 *205:24 *4478:A1 0
14 *205:24 *211:21 0
15 *205:24 *235:12 5.67058e-05
16 *56:10 *4642:A 0.000171906
17 *139:8 *205:16 9.91165e-05
18 *203:20 *205:24 1.14452e-05
19 *204:22 *205:24 1.14452e-05
*RES
1 *4619:Q *205:8 40.5271 
2 *205:8 *205:16 32.1929 
3 *205:16 *205:24 36.3179 
4 *205:24 *4456:A0 23 
5 *205:16 *4596:B 23 
6 *205:8 *4642:A 42.2879 
*END

*D_NET *206 0.00614897
*CONN
*I *4600:A I *D sky130_fd_sc_hd__nor2_1
*I *4599:A I *D sky130_fd_sc_hd__and2_4
*I *4470:B I *D sky130_fd_sc_hd__or2_1
*I *4471:A0 I *D sky130_fd_sc_hd__mux2_4
*I *4620:Q O *D sky130_fd_sc_hd__dfrtp_4
*CAP
1 *4600:A 0
2 *4599:A 0
3 *4470:B 0
4 *4471:A0 0.000160192
5 *4620:Q 0.000295905
6 *206:47 0.000431135
7 *206:20 0.000609375
8 *206:16 0.000574313
9 *206:14 0.000783662
10 *206:10 0.000523303
11 *4471:A0 *4471:S 0.000269775
12 *4471:A0 *247:25 4.5051e-05
13 *206:10 *247:10 0
14 *206:14 *4612:A 2.35426e-05
15 *206:14 *247:25 0.000314157
16 *206:16 *247:25 0.000308045
17 *206:20 *247:25 0.00126448
18 *206:47 *247:64 0
19 *4601:A *206:16 2.18409e-05
20 *4601:A *206:20 0.000148634
21 *3:15 *206:47 9.39159e-05
22 *49:10 *206:16 3.71251e-05
23 *57:10 *206:10 3.56433e-05
24 *57:10 *206:14 1.5812e-05
25 *139:14 *206:47 9.67842e-05
26 *142:10 *206:47 9.62764e-05
*RES
1 *4620:Q *206:10 43.1371 
2 *206:10 *206:14 20.3857 
3 *206:14 *206:16 3.48 
4 *206:16 *206:20 14.4586 
5 *206:20 *4471:A0 26.9564 
6 *206:20 *4470:B 23 
7 *206:16 *4599:A 23 
8 *206:14 *206:47 38.0164 
9 *206:47 *4600:A 23 
*END

*D_NET *207 0.00855479
*CONN
*I *4645:A I *D sky130_fd_sc_hd__dlygate4sd3_1
*I *4465:A0 I *D sky130_fd_sc_hd__mux2_8
*I *4463:B I *D sky130_fd_sc_hd__or2_1
*I *4603:A I *D sky130_fd_sc_hd__and3_4
*I *4604:A1 I *D sky130_fd_sc_hd__a21oi_1
*I *4621:Q O *D sky130_fd_sc_hd__dfrtp_4
*CAP
1 *4645:A 0.000134895
2 *4465:A0 0
3 *4463:B 0
4 *4603:A 0
5 *4604:A1 5.45698e-05
6 *4621:Q 0.000218247
7 *207:48 0.000140085
8 *207:40 0.00194295
9 *207:31 0.000178665
10 *207:16 0.0014793
11 *207:10 0.00310296
12 *207:8 0.000407181
13 *207:16 *245:10 0
14 *207:31 *208:8 2.45549e-06
15 *207:31 *208:10 1.39317e-05
16 *207:31 *208:41 0.000194309
17 *207:31 *212:10 0
18 *207:48 *4465:S 1.67944e-05
19 *207:48 *253:10 0
20 *4603:C *207:31 0
21 *4605:A *207:31 5.3304e-05
22 *4621:D *207:40 0.000568886
23 *5:19 *4645:A 0
24 *5:19 *207:10 0
25 *5:19 *207:16 0
26 *58:10 *207:10 9.21347e-06
27 *58:10 *207:16 2.29192e-05
28 *141:10 *207:31 0
29 *144:10 *207:16 1.41203e-05
30 *156:8 *207:48 0
*RES
1 *4621:Q *207:8 41.9564 
2 *207:8 *207:10 1.20143 
3 *207:10 *207:16 32.9386 
4 *207:16 *4604:A1 23.6214 
5 *207:16 *207:31 33.9357 
6 *207:31 *4603:A 23 
7 *207:10 *207:40 39.4429 
8 *207:40 *207:48 32.175 
9 *207:48 *4463:B 23 
10 *207:40 *4465:A0 23 
11 *207:8 *4645:A 40.61 
*END

*D_NET *208 0.00614021
*CONN
*I *4604:B1 I *D sky130_fd_sc_hd__a21oi_1
*I *4603:B I *D sky130_fd_sc_hd__and3_4
*I *4462:A0 I *D sky130_fd_sc_hd__mux2_8
*I *4460:B I *D sky130_fd_sc_hd__or2_4
*I *4622:Q O *D sky130_fd_sc_hd__dfrtp_4
*CAP
1 *4604:B1 0
2 *4603:B 2.34823e-05
3 *4462:A0 0
4 *4460:B 0
5 *4622:Q 0.00105164
6 *208:41 0.000217439
7 *208:18 8.49201e-05
8 *208:12 0.00132744
9 *208:10 0.001337
10 *208:8 0.00134008
11 *208:18 *232:49 0
12 *208:41 *212:10 0
13 *208:41 *212:14 0
14 *4603:C *208:12 5.70419e-05
15 *4603:C *208:41 0
16 *4605:A *208:8 4.38068e-06
17 *4605:A *208:10 5.14746e-06
18 *4605:A *208:12 5.14746e-06
19 *51:6 *208:8 0.000401899
20 *54:37 *208:18 1.59603e-05
21 *143:12 *208:12 8.85299e-06
22 *143:12 *208:41 0
23 *144:10 *208:41 4.90787e-05
24 *207:31 *208:8 2.45549e-06
25 *207:31 *208:10 1.39317e-05
26 *207:31 *208:41 0.000194309
*RES
1 *4622:Q *208:8 37.935 
2 *208:8 *208:10 1.09786 
3 *208:10 *208:12 16.3436 
4 *208:12 *208:18 31.5536 
5 *208:18 *4460:B 23 
6 *208:12 *4462:A0 23 
7 *208:10 *4603:B 23.4971 
8 *208:8 *208:41 34.0186 
9 *208:41 *4604:B1 23 
*END

*D_NET *209 0.00438968
*CONN
*I *4607:A I *D sky130_fd_sc_hd__or2_1
*I *4606:A I *D sky130_fd_sc_hd__nand2_1
*I *4476:A2 I *D sky130_fd_sc_hd__o21ai_4
*I *4475:A2 I *D sky130_fd_sc_hd__o21a_4
*I *4623:Q O *D sky130_fd_sc_hd__dfrtp_4
*CAP
1 *4607:A 0.00014486
2 *4606:A 0
3 *4476:A2 2.34823e-05
4 *4475:A2 0
5 *4623:Q 0.000172505
6 *209:38 0.000890782
7 *209:20 0.000167612
8 *209:12 0.000958752
9 *209:10 0.00151358
10 *209:8 0.000172505
11 *209:20 *232:40 0
12 *209:38 *245:24 0.000115019
13 *4606:B *4607:A 0.000143655
14 *60:10 *209:8 0
15 *60:10 *209:38 2.83091e-05
16 *167:12 *209:20 5.86165e-05
*RES
1 *4623:Q *209:8 41.3143 
2 *209:8 *209:10 15 
3 *209:10 *209:12 13.0086 
4 *209:12 *209:20 33.3557 
5 *209:20 *4475:A2 23 
6 *209:12 *4476:A2 23.4971 
7 *209:10 *209:38 13.6507 
8 *209:38 *4606:A 23 
9 *209:38 *4607:A 26.0243 
*END

*D_NET *210 0.00378636
*CONN
*I *4468:B I *D sky130_fd_sc_hd__or2_4
*I *4641:A I *D sky130_fd_sc_hd__dlygate4sd3_1
*I *4624:Q O *D sky130_fd_sc_hd__dfrtp_1
*CAP
1 *4468:B 0
2 *4641:A 9.37145e-05
3 *4624:Q 0.000575829
4 *210:25 0.00069878
5 *210:10 0.00136832
6 *210:10 *212:14 0
7 *210:10 *249:10 0
8 *210:25 *212:14 0
9 *210:25 *245:14 0.000964465
10 *210:25 *245:45 8.52481e-05
11 *210:25 *245:60 0
12 *61:10 *210:10 0
*RES
1 *4624:Q *210:10 46.12 
2 *210:10 *4641:A 39.5743 
3 *210:10 *210:25 32.3586 
4 *210:25 *4468:B 23 
*END

*D_NET *211 0.00282533
*CONN
*I *4627:A I *D sky130_fd_sc_hd__clkbuf_16
*I *4626:A I *D sky130_fd_sc_hd__clkbuf_16
*I *4625:X O *D sky130_fd_sc_hd__clkbuf_16
*CAP
1 *4627:A 0
2 *4626:A 0.000298922
3 *4625:X 5.45698e-05
4 *211:21 0.000763221
5 *211:8 0.00111671
6 *4626:A *4621:CLK 0
7 *4626:A *212:10 0
8 *4626:A *254:10 0
9 *211:21 *213:16 6.11286e-05
10 *3:15 *4626:A 0
11 *3:15 *211:21 0
12 *49:10 *211:21 0
13 *50:8 *4626:A 0.000138708
14 *139:14 *211:21 0.000146245
15 *139:20 *211:21 0.000245827
16 *141:8 *4626:A 0
17 *141:8 *211:21 0
18 *203:20 *211:21 0
19 *205:24 *211:21 0
*RES
1 *4625:X *211:8 38.6214 
2 *211:8 *4626:A 44.1314 
3 *211:8 *211:21 31.3436 
4 *211:21 *4627:A 23 
*END

*D_NET *212 0.00511362
*CONN
*I *4621:CLK I *D sky130_fd_sc_hd__dfrtp_4
*I *4622:CLK I *D sky130_fd_sc_hd__dfrtp_4
*I *4624:CLK I *D sky130_fd_sc_hd__dfrtp_1
*I *4623:CLK I *D sky130_fd_sc_hd__dfrtp_4
*I *4626:X O *D sky130_fd_sc_hd__clkbuf_16
*CAP
1 *4621:CLK 9.16728e-05
2 *4622:CLK 0
3 *4624:CLK 0
4 *4623:CLK 0.000628235
5 *4626:X 0.000201348
6 *212:14 0.00123735
7 *212:10 0.00108837
8 *212:8 0.000772278
9 *4621:CLK *254:10 0.000135557
10 *4623:CLK *4609:A 0.000346031
11 *212:8 *4602:A 2.64616e-05
12 *212:8 *4613:A 6.17437e-06
13 *212:10 *4613:A 0
14 *212:10 *245:10 0
15 *212:10 *254:10 6.25829e-05
16 *212:14 *245:10 0
17 *212:14 *249:10 8.51432e-05
18 *4609:B *4623:CLK 0.00010018
19 *4626:A *4621:CLK 0
20 *4626:A *212:10 0
21 *50:8 *212:10 0
22 *52:6 *4623:CLK 0.000105934
23 *144:10 *212:10 0
24 *144:10 *212:14 0
25 *145:12 *4623:CLK 0.000226306
26 *207:31 *212:10 0
27 *208:41 *212:10 0
28 *208:41 *212:14 0
29 *210:10 *212:14 0
30 *210:25 *212:14 0
*RES
1 *4626:X *212:8 40.5271 
2 *212:8 *212:10 9.30071 
3 *212:10 *212:14 26.7657 
4 *212:14 *4623:CLK 37.5 
5 *212:14 *4624:CLK 23 
6 *212:10 *4622:CLK 38 
7 *212:8 *4621:CLK 39.9057 
*END

*D_NET *213 0.00541054
*CONN
*I *4618:CLK I *D sky130_fd_sc_hd__dfrtp_4
*I *4617:CLK I *D sky130_fd_sc_hd__dfrtp_4
*I *4619:CLK I *D sky130_fd_sc_hd__dfrtp_1
*I *4620:CLK I *D sky130_fd_sc_hd__dfrtp_4
*I *4627:X O *D sky130_fd_sc_hd__clkbuf_16
*CAP
1 *4618:CLK 0
2 *4617:CLK 0
3 *4619:CLK 2.89729e-05
4 *4620:CLK 0
5 *4627:X 0.000252417
6 *213:50 0.00061468
7 *213:40 0.00109498
8 *213:23 0.000620805
9 *213:16 0.000627763
10 *213:8 0.000991709
11 *4619:CLK *4597:B1 0.000142916
12 *213:16 *247:64 0
13 *213:40 *251:12 0
14 *213:40 *252:8 0
15 *213:50 *251:6 5.12254e-05
16 *213:50 *251:12 6.79006e-05
17 *4598:A *213:16 1.19796e-05
18 *4598:A *213:23 3.71198e-05
19 *3:15 *213:16 0.000118825
20 *47:10 *213:40 4.3407e-05
21 *48:10 *4619:CLK 0.000122632
22 *49:10 *213:16 4.83778e-05
23 *139:14 *213:16 0.000155739
24 *139:20 *213:16 9.85086e-05
25 *142:10 *213:16 7.81176e-05
26 *204:14 *213:40 0
27 *205:16 *213:8 0.000141326
28 *211:21 *213:16 6.11286e-05
*RES
1 *4627:X *213:8 41.9564 
2 *213:8 *213:16 28.8371 
3 *213:16 *4620:CLK 23 
4 *213:8 *213:23 1.90571 
5 *213:23 *4619:CLK 39.5743 
6 *213:23 *213:40 24.3629 
7 *213:40 *213:50 41.4757 
8 *213:50 *4617:CLK 23 
9 *213:40 *4618:CLK 23 
*END

*D_NET *214 0.00366073
*CONN
*I *4454:A1 I *D sky130_fd_sc_hd__mux2_8
*I *4646:X O *D sky130_fd_sc_hd__buf_1
*CAP
1 *4454:A1 0.000458398
2 *4646:X 0.00111354
3 *214:6 0.00157194
4 *4454:A1 *255:10 0
5 *214:6 *225:8 4.05309e-05
6 *214:6 *256:8 0.000443207
7 *13:15 *4454:A1 3.31127e-05
*RES
1 *4646:X *214:6 44.1079 
2 *214:6 *4454:A1 38.9486 
*END

*D_NET *215 0.00935477
*CONN
*I *4663:A I *D sky130_fd_sc_hd__clkbuf_1
*I *4534:X O *D sky130_fd_sc_hd__a22o_1
*CAP
1 *4663:A 0
2 *4534:X 0
3 *215:12 0.000425328
4 *215:6 0.00302777
5 *215:4 0.00260245
6 *215:12 *216:12 0
7 *4477:A *215:6 0.000574091
8 *4591:B1 *215:6 0.000183733
9 *136:14 *215:12 0
10 *147:6 *215:6 0.000394988
11 *162:43 *215:6 0.00100714
12 *170:6 *215:6 0.00113927
*RES
1 *4534:X *215:4 23 
2 *215:4 *215:6 41.5943 
3 *215:6 *215:12 37.54 
4 *215:12 *4663:A 23 
*END

*D_NET *216 0.00820999
*CONN
*I *4664:A I *D sky130_fd_sc_hd__clkbuf_1
*I *4548:X O *D sky130_fd_sc_hd__a22o_1
*CAP
1 *4664:A 0
2 *4548:X 0
3 *216:12 0.000284955
4 *216:6 0.00266749
5 *216:4 0.00238254
6 *216:6 *4511:A1 9.41704e-05
7 *216:6 *238:58 0.00125526
8 *216:6 *257:10 0.000274078
9 *216:12 *217:12 0
10 *216:12 *220:8 0
11 *4511:B1 *216:6 2.43944e-05
12 *4548:A1 *216:6 0.000312357
13 *4548:B2 *216:6 0.000359326
14 *4592:A1 *216:6 8.48502e-06
15 *136:14 *216:6 5.50106e-05
16 *170:20 *216:6 0.000387731
17 *170:22 *216:6 0.0001042
18 *215:12 *216:12 0
*RES
1 *4548:X *216:4 23 
2 *216:4 *216:6 53.9814 
3 *216:6 *216:12 35.075 
4 *216:12 *4664:A 23 
*END

*D_NET *217 0.00369337
*CONN
*I *4665:A I *D sky130_fd_sc_hd__clkbuf_1
*I *4562:X O *D sky130_fd_sc_hd__a22o_1
*CAP
1 *4665:A 0
2 *4562:X 0.00168805
3 *217:12 0.000104296
4 *217:6 0.00179234
5 *217:12 *218:12 0
6 *217:12 *220:8 0.000108681
7 *216:12 *217:12 0
*RES
1 *4562:X *217:6 45.0607 
2 *217:6 *217:12 31.9057 
3 *217:12 *4665:A 23 
*END

*D_NET *218 0.0106747
*CONN
*I *4666:A I *D sky130_fd_sc_hd__clkbuf_1
*I *4573:X O *D sky130_fd_sc_hd__a22o_1
*CAP
1 *4666:A 0
2 *4573:X 0
3 *218:12 0.00105469
4 *218:8 0.00339811
5 *218:4 0.00234342
6 *218:8 *222:8 0.000862786
7 *218:8 *228:28 0.000163918
8 *218:8 *236:12 1.94812e-05
9 *218:8 *236:21 0.000428147
10 *218:12 *220:8 0
11 *218:12 *236:51 0.000216721
12 *218:12 *236:70 0.000397716
13 *218:12 *236:85 0.000802051
14 *218:12 *238:58 0
15 *4473:C *218:12 0
16 *4515:B *218:8 9.24795e-06
17 *4573:A2 *218:8 3.7122e-06
18 *4582:A *218:12 0.000227497
19 *4589:B1 *218:12 0.000166522
20 *137:8 *218:12 0
21 *166:21 *218:12 0.000232142
22 *175:98 *218:12 7.75329e-06
23 *186:18 *218:8 1.32289e-05
24 *186:22 *218:8 2.49501e-05
25 *196:75 *218:12 0.000302599
26 *217:12 *218:12 0
*RES
1 *4573:X *218:4 23 
2 *218:4 *218:8 48.0186 
3 *218:8 *218:12 42.26 
4 *218:12 *4666:A 23 
*END

*D_NET *219 0.00361302
*CONN
*I *4667:A I *D sky130_fd_sc_hd__clkbuf_1
*I *4583:X O *D sky130_fd_sc_hd__mux2_1
*CAP
1 *4667:A 0
2 *4583:X 0
3 *219:14 0.00150408
4 *219:6 0.00150408
5 *219:14 *4668:A 0.000317499
6 *219:14 *257:16 0.000287367
7 *128:12 *219:14 0
8 *129:12 *219:14 0
*RES
1 *4583:X *219:6 38 
2 *219:6 *219:14 46.6929 
3 *219:14 *4667:A 23 
*END

*D_NET *220 0.00217859
*CONN
*I *4668:A I *D sky130_fd_sc_hd__clkbuf_1
*I *4592:X O *D sky130_fd_sc_hd__mux2_1
*CAP
1 *4668:A 0.000232599
2 *4592:X 0.000227437
3 *220:8 0.000460036
4 *4668:A *257:16 0.000832335
5 *216:12 *220:8 0
6 *217:12 *220:8 0.000108681
7 *218:12 *220:8 0
8 *219:14 *4668:A 0.000317499
*RES
1 *4592:X *220:8 42.3707 
2 *220:8 *4668:A 47.6943 
*END

*D_NET *221 0.00759751
*CONN
*I *4669:A I *D sky130_fd_sc_hd__clkbuf_1
*I *4594:Y O *D sky130_fd_sc_hd__nor2_1
*CAP
1 *4669:A 0
2 *4594:Y 0
3 *221:12 0.000611229
4 *221:6 0.00270597
5 *221:4 0.00209474
6 *4593:A *221:6 1.41077e-05
7 *4593:B *221:6 0.000374387
8 *4593:C *221:6 0.000400198
9 *4594:B *221:6 0.00010018
10 *162:39 *221:6 0.00122361
11 *169:69 *221:12 7.30978e-05
*RES
1 *4594:Y *221:4 23 
2 *221:4 *221:6 46.835 
3 *221:6 *221:12 41.0614 
4 *221:12 *4669:A 23 
*END

*D_NET *222 0.0209999
*CONN
*I *4511:A1 I *D sky130_fd_sc_hd__a32o_1
*I *4549:A1 I *D sky130_fd_sc_hd__a22o_1
*I *4536:A1 I *D sky130_fd_sc_hd__a31oi_1
*I *4550:A I *D sky130_fd_sc_hd__and3_4
*I *4517:A1 I *D sky130_fd_sc_hd__o31a_1
*I *4654:X O *D sky130_fd_sc_hd__clkbuf_2
*CAP
1 *4511:A1 0.000294316
2 *4549:A1 0
3 *4536:A1 0.000111935
4 *4550:A 0
5 *4517:A1 0
6 *4654:X 0.000231825
7 *222:65 0.000831869
8 *222:45 0.000381742
9 *222:39 0.000609353
10 *222:35 0.00173063
11 *222:33 0.00202749
12 *222:24 0.00135875
13 *222:16 0.00187004
14 *222:12 0.000789825
15 *222:8 0.00038535
16 *222:12 *228:22 0.000311159
17 *222:16 *227:57 3.46138e-05
18 *222:24 *228:22 0.000364528
19 *222:33 *228:22 0.000664021
20 *222:35 *229:17 0.00207748
21 *222:35 *229:30 8.264e-05
22 *222:65 *227:57 6.70361e-05
23 *4511:B1 *4511:A1 1.6318e-05
24 *4515:B *222:8 5.37348e-06
25 *4529:B *4536:A1 5.41385e-05
26 *4536:A3 *222:39 3.3123e-05
27 *4536:A3 *222:45 1.83564e-05
28 *4549:B1 *222:35 0.000241734
29 *4562:B2 *4511:A1 3.92407e-05
30 *4594:A *222:39 1.12487e-05
31 *62:10 *4511:A1 0.000112731
32 *62:10 *222:12 0.000308927
33 *62:10 *222:24 0.000162239
34 *62:10 *222:65 0.000137664
35 *66:8 *222:8 0.000525406
36 *75:8 *222:35 9.67842e-05
37 *75:10 *222:39 3.47776e-05
38 *98:10 *222:65 0
39 *99:10 *222:45 0.000713493
40 *110:10 *4511:A1 0.000641572
41 *110:10 *222:65 0.000168754
42 *130:26 *222:24 9.59329e-05
43 *130:28 *222:24 0.000859282
44 *158:130 *222:45 0
45 *162:39 *4511:A1 0.000223043
46 *162:93 *4511:A1 0.000160191
47 *169:22 *222:65 0
48 *169:33 *222:65 0
49 *170:20 *4511:A1 2.18676e-05
50 *179:86 *222:65 0.000423308
51 *179:112 *222:35 0.000218493
52 *180:38 *222:45 0.000383251
53 *185:49 *222:24 0
54 *185:49 *222:33 0
55 *185:68 *222:33 0
56 *186:18 *222:8 0.000111109
57 *216:6 *4511:A1 9.41704e-05
58 *218:8 *222:8 0.000862786
*RES
1 *4654:X *222:8 47.6736 
2 *222:8 *222:12 19.3707 
3 *222:12 *222:16 16.0979 
4 *222:16 *222:24 38.4693 
5 *222:24 *4517:A1 23 
6 *222:16 *222:33 23.9486 
7 *222:33 *222:35 35.4007 
8 *222:35 *222:39 17.2579 
9 *222:39 *222:45 28.195 
10 *222:45 *4550:A 23 
11 *222:39 *4536:A1 40.0507 
12 *222:12 *222:65 26.2271 
13 *222:65 *4549:A1 38 
14 *222:65 *4511:A1 48.1914 
*END

*D_NET *223 0.012572
*CONN
*I *4487:A_N I *D sky130_fd_sc_hd__nand2b_4
*I *4497:A I *D sky130_fd_sc_hd__nor2_1
*I *4557:B I *D sky130_fd_sc_hd__and3_4
*I *4458:B I *D sky130_fd_sc_hd__nor2_2
*I *4499:A1 I *D sky130_fd_sc_hd__o21ai_2
*I *4486:A_N I *D sky130_fd_sc_hd__and2b_4
*I *4514:B I *D sky130_fd_sc_hd__and2b_4
*I *4498:A I *D sky130_fd_sc_hd__or2_4
*I *4655:X O *D sky130_fd_sc_hd__buf_2
*CAP
1 *4487:A_N 0
2 *4497:A 0
3 *4557:B 0.000120984
4 *4458:B 0
5 *4499:A1 1.53034e-05
6 *4486:A_N 0
7 *4514:B 0.00014294
8 *4498:A 0.000158967
9 *4655:X 0.000461764
10 *223:103 0.000250056
11 *223:82 0.000741336
12 *223:67 0.000514084
13 *223:61 0.000159092
14 *223:49 0.000192294
15 *223:27 0.000303007
16 *223:25 0.000525502
17 *223:14 0.000899914
18 *223:8 0.00102957
19 *4514:B *226:16 5.50106e-05
20 *223:8 *228:52 0.000136738
21 *223:14 *4525:C1 0.000186015
22 *223:14 *224:14 0.000125705
23 *223:14 *224:16 0.000228521
24 *223:14 *224:20 0.00021673
25 *223:14 *228:70 5.56306e-05
26 *223:25 *226:10 0
27 *223:25 *244:82 0
28 *223:27 *226:10 0
29 *223:27 *226:16 0
30 *223:49 *4455:A 0.000141954
31 *223:49 *224:28 0.000482497
32 *223:49 *224:40 0.000102389
33 *223:61 *4499:A2 2.93845e-05
34 *223:61 *224:40 4.2573e-05
35 *223:67 *4499:A2 2.64616e-05
36 *223:67 *224:40 0.000203594
37 *223:82 *224:40 0.000589151
38 *223:82 *244:94 0
39 *223:103 *4541:A 2.65002e-05
40 *223:103 *228:76 0.000163352
41 *223:103 *244:105 6.07611e-06
42 *223:103 *244:116 0.000136019
43 *4556:A3 *223:8 0.000301116
44 *4567:B1 *223:25 0.000460568
45 *4567:B1 *223:27 2.46345e-05
46 *4584:S *4557:B 4.84318e-06
47 *4584:S *223:82 1.54983e-05
48 *4584:S *223:103 3.32677e-05
49 *63:18 *223:14 2.11157e-05
50 *65:8 *4514:B 3.81391e-05
51 *65:8 *223:27 1.02387e-05
52 *106:6 *4557:B 6.99589e-05
53 *106:12 *223:103 0.000169683
54 *148:8 *223:25 0.000131009
55 *150:12 *223:8 5.74317e-06
56 *151:10 *223:82 0.00053449
57 *151:10 *223:103 0.000194318
58 *151:70 *223:14 0.000352603
59 *176:20 *223:103 2.64616e-05
60 *180:8 *223:67 0
61 *180:50 *223:67 1.76557e-05
62 *191:8 *4498:A 9.84794e-05
63 *191:8 *223:14 0.00021677
64 *191:35 *223:14 6.16643e-05
65 *192:14 *223:49 5.79559e-05
66 *192:14 *223:82 6.17437e-06
67 *192:23 *223:49 0.00106252
68 *192:29 *223:27 0.000187986
*RES
1 *4655:X *223:8 43.8621 
2 *223:8 *223:14 27.8843 
3 *223:14 *4498:A 26.0036 
4 *223:14 *223:25 21.1314 
5 *223:25 *223:27 3.31429 
6 *223:27 *4514:B 40.8793 
7 *223:27 *4486:A_N 38 
8 *223:25 *223:49 27.0557 
9 *223:49 *4499:A1 23 
10 *4499:A1 *223:61 23.6214 
11 *223:61 *223:67 18.2314 
12 *223:67 *4458:B 38 
13 *223:67 *223:82 25.0775 
14 *223:82 *4557:B 25.3096 
15 *223:82 *223:103 37.2811 
16 *223:103 *4497:A 23 
17 *223:61 *4487:A_N 23 
*END

*D_NET *224 0.0154753
*CONN
*I *4525:C1 I *D sky130_fd_sc_hd__a211o_1
*I *4512:B1 I *D sky130_fd_sc_hd__a21oi_1
*I *4567:A2 I *D sky130_fd_sc_hd__o32a_1
*I *4528:B1 I *D sky130_fd_sc_hd__a21o_1
*I *4537:C1 I *D sky130_fd_sc_hd__a211o_1
*I *4499:B1 I *D sky130_fd_sc_hd__o21ai_2
*I *4541:A I *D sky130_fd_sc_hd__or3b_1
*I *4584:A1 I *D sky130_fd_sc_hd__mux2_4
*I *4656:X O *D sky130_fd_sc_hd__buf_2
*CAP
1 *4525:C1 0.000461208
2 *4512:B1 0
3 *4567:A2 5.27288e-05
4 *4528:B1 0.000155491
5 *4537:C1 1.92397e-05
6 *4499:B1 0
7 *4541:A 0.000312755
8 *4584:A1 0
9 *4656:X 0.00122522
10 *224:40 0.000927224
11 *224:28 0.00119107
12 *224:24 0.00077829
13 *224:20 0.000551039
14 *224:16 0.000400128
15 *224:14 0.000198681
16 *224:12 0.000525588
17 *224:10 0.00122522
18 *4525:C1 *4556:A2 6.10551e-06
19 *4525:C1 *227:65 0
20 *4525:C1 *228:70 1.10864e-05
21 *4525:C1 *244:61 0.000319182
22 *4537:C1 *4455:A 1.14154e-05
23 *4537:C1 *4537:A1 4.00259e-06
24 *4541:A *228:76 0.000299207
25 *4541:A *231:69 1.47563e-05
26 *4541:A *231:75 0.000132521
27 *224:10 *4635:A 0.000152468
28 *224:10 *241:8 0.000267173
29 *224:10 *243:56 0.000169589
30 *224:14 *244:61 0.000134009
31 *224:16 *244:61 0.000229367
32 *224:20 *244:35 0.000326983
33 *224:20 *244:61 0.000263108
34 *224:24 *4455:A 4.2062e-05
35 *224:24 *244:35 1.57571e-05
36 *224:28 *4455:A 0.00020603
37 *224:28 *4499:A2 0
38 *224:40 *4499:A2 4.12802e-05
39 *224:40 *231:75 0.000125915
40 *4525:A2 *4525:C1 5.79416e-05
41 *4528:A2 *4528:B1 4.00259e-06
42 *4559:A2 *4541:A 0.000471907
43 *4563:B *4525:C1 6.12397e-05
44 *65:32 *4567:A2 9.41704e-05
45 *65:36 *224:10 0.000399835
46 *79:10 *4528:B1 9.84851e-05
47 *87:10 *4528:B1 0.00010018
48 *105:10 *4525:C1 2.5415e-05
49 *107:10 *4541:A 8.62876e-05
50 *148:12 *4567:A2 2.64616e-05
51 *148:23 *4567:A2 2.64616e-05
52 *150:12 *4525:C1 3.3746e-05
53 *151:10 *4541:A 9.27917e-05
54 *151:10 *224:40 4.32475e-05
55 *151:28 *224:40 0.000100615
56 *151:70 *4525:C1 0
57 *151:70 *224:20 0.000185573
58 *179:25 *4528:B1 0.000268074
59 *180:8 *224:40 0
60 *180:50 *4528:B1 2.65879e-05
61 *180:50 *224:40 9.45591e-05
62 *186:22 *4525:C1 1.24376e-05
63 *191:35 *224:10 0.000137651
64 *192:14 *224:40 2.80918e-05
65 *223:14 *4525:C1 0.000186015
66 *223:14 *224:14 0.000125705
67 *223:14 *224:16 0.000228521
68 *223:14 *224:20 0.00021673
69 *223:49 *224:28 0.000482497
70 *223:49 *224:40 0.000102389
71 *223:61 *224:40 4.2573e-05
72 *223:67 *224:40 0.000203594
73 *223:82 *224:40 0.000589151
74 *223:103 *4541:A 2.65002e-05
*RES
1 *4656:X *224:10 45.7029 
2 *224:10 *224:12 15 
3 *224:12 *224:14 1.90571 
4 *224:14 *224:16 3.31429 
5 *224:16 *224:20 22.8921 
6 *224:20 *224:24 2.54786 
7 *224:24 *224:28 12.5529 
8 *224:28 *224:40 31.7371 
9 *224:40 *4584:A1 38 
10 *224:40 *4541:A 49.4136 
11 *224:28 *4499:B1 23 
12 *224:24 *4537:C1 23.4971 
13 *224:20 *4528:B1 27.9507 
14 *224:16 *4567:A2 39.0979 
15 *224:14 *4512:B1 38 
16 *224:12 *4525:C1 47.0936 
*END

*D_NET *225 0.00389067
*CONN
*I *4478:A1 I *D sky130_fd_sc_hd__mux2_8
*I *4647:X O *D sky130_fd_sc_hd__buf_1
*CAP
1 *4478:A1 0.00090441
2 *4647:X 0.00010798
3 *225:8 0.00101239
4 *4478:A1 *4456:S 0.000280774
5 *4478:A1 *235:12 0.00126451
6 *4478:A0 *4478:A1 0.000280074
7 *203:20 *4478:A1 0
8 *204:22 *4478:A1 0
9 *204:54 *4478:A1 0
10 *205:24 *4478:A1 0
11 *214:6 *225:8 4.05309e-05
*RES
1 *4647:X *225:8 39.5743 
2 *225:8 *4478:A1 39.0389 
*END

*D_NET *226 0.00900946
*CONN
*I *4498:B I *D sky130_fd_sc_hd__or2_4
*I *4486:B I *D sky130_fd_sc_hd__and2b_4
*I *4479:A I *D sky130_fd_sc_hd__inv_1
*I *4517:A2 I *D sky130_fd_sc_hd__o31a_1
*I *4518:A2 I *D sky130_fd_sc_hd__a211o_1
*I *4514:A_N I *D sky130_fd_sc_hd__and2b_4
*I *4657:X O *D sky130_fd_sc_hd__clkbuf_2
*CAP
1 *4498:B 0
2 *4486:B 7.08253e-05
3 *4479:A 0.000141991
4 *4517:A2 0
5 *4518:A2 0
6 *4514:A_N 0
7 *4657:X 0.000603941
8 *226:46 0.00067334
9 *226:40 0.00102516
10 *226:29 0.000129931
11 *226:23 0.00140092
12 *226:16 0.0015934
13 *226:10 0.001107
14 *226:6 0.00110788
15 *4479:A *239:24 1.01436e-05
16 *226:10 *244:82 6.6869e-05
17 *226:46 *4656:A 7.75329e-06
18 *226:46 *239:14 0.000176009
19 *226:46 *239:24 0.000242042
20 *4514:B *226:16 5.50106e-05
21 *4518:B1 *4479:A 2.80753e-05
22 *130:26 *226:46 5.50106e-05
23 *148:8 *226:10 0
24 *148:33 *226:46 8.62783e-05
25 *151:32 *4486:B 5.47927e-05
26 *158:148 *226:46 0
27 *172:16 *226:46 0.00015508
28 *175:48 *4479:A 2.80753e-05
29 *179:42 *226:46 0
30 *188:21 *226:46 7.64309e-05
31 *193:41 *226:46 0.000113485
32 *223:25 *226:10 0
33 *223:27 *226:10 0
34 *223:27 *226:16 0
*RES
1 *4657:X *226:6 33.15 
2 *226:6 *226:10 23.9486 
3 *226:10 *226:16 24.0729 
4 *226:16 *4514:A_N 23 
5 *226:16 *226:23 18.2493 
6 *226:23 *226:29 32.2579 
7 *226:29 *4518:A2 23 
8 *226:23 *226:40 18.9046 
9 *226:40 *226:46 30.3804 
10 *226:46 *4517:A2 23 
11 *226:40 *4479:A 40.4495 
12 *226:10 *4486:B 39.5743 
13 *226:6 *4498:B 23 
*END

*D_NET *227 0.02333
*CONN
*I *4578:A1 I *D sky130_fd_sc_hd__a21o_1
*I *4588:A1 I *D sky130_fd_sc_hd__a31o_1
*I *4466:B I *D sky130_fd_sc_hd__nor2_1
*I *4560:A1 I *D sky130_fd_sc_hd__o211a_1
*I *4564:C1 I *D sky130_fd_sc_hd__o211ai_1
*I *4530:C1 I *D sky130_fd_sc_hd__o211a_1
*I *4565:C1 I *D sky130_fd_sc_hd__a221o_1
*I *4658:X O *D sky130_fd_sc_hd__buf_2
*CAP
1 *4578:A1 0
2 *4588:A1 9.85363e-05
3 *4466:B 0
4 *4560:A1 0
5 *4564:C1 8.22018e-05
6 *4530:C1 0
7 *4565:C1 2.91229e-05
8 *4658:X 0.000156137
9 *227:75 0.000750428
10 *227:65 0.00129344
11 *227:57 0.00257274
12 *227:43 0.00259142
13 *227:26 0.00151733
14 *227:16 0.0018824
15 *227:12 0.00122641
16 *227:8 0.000607408
17 *4588:A1 *240:21 0.000246767
18 *227:43 *231:10 2.80512e-05
19 *227:57 *4568:A1 0.000474999
20 *227:57 *231:10 0.000973971
21 *227:57 *231:37 0.000965155
22 *227:57 *231:39 1.41129e-05
23 *227:65 *231:37 1.14154e-05
24 *227:65 *231:39 0.000135037
25 *4459:A *227:26 5.27028e-05
26 *4466:A *227:43 6.00355e-05
27 *4493:B *227:26 0.000182832
28 *4525:A2 *227:65 0.000151274
29 *4525:A2 *227:75 6.11038e-05
30 *4525:C1 *227:65 0
31 *4560:B1 *227:65 0.000108681
32 *4565:B1 *4565:C1 1.37232e-05
33 *4565:B1 *227:43 0
34 *4565:B2 *4565:C1 2.28308e-05
35 *4565:B2 *227:26 1.57571e-05
36 *4567:B1 *227:75 0.000431843
37 *4567:B2 *227:75 0.000561103
38 *4569:B2 *227:57 0.000256688
39 *4581:B1 *227:12 0.000119315
40 *65:19 *227:75 0.000459657
41 *66:23 *227:43 0
42 *99:10 *227:57 0.000140958
43 *99:10 *227:65 2.42041e-05
44 *105:10 *4564:C1 2.64616e-05
45 *105:10 *227:65 0.000204573
46 *112:14 *4564:C1 5.67058e-05
47 *147:57 *227:26 0.00103239
48 *148:101 *227:75 0
49 *151:70 *227:65 9.28078e-06
50 *151:70 *227:75 0.000602371
51 *152:6 *227:26 2.18506e-05
52 *154:25 *227:8 0.00030233
53 *154:47 *227:43 0.00043778
54 *154:51 *227:43 8.4047e-05
55 *162:8 *227:12 0.000131442
56 *162:8 *227:16 3.52383e-05
57 *164:14 *227:16 0.000254906
58 *165:24 *227:26 5.50049e-05
59 *168:18 *227:26 0.000382867
60 *169:87 *4588:A1 0.000302358
61 *169:87 *227:26 0.000111852
62 *173:47 *227:26 0.00039759
63 *176:20 *4564:C1 7.88828e-05
64 *178:59 *4588:A1 0
65 *178:59 *227:26 6.27443e-05
66 *180:38 *227:65 4.6318e-06
67 *186:10 *227:26 0.000313249
68 *190:12 *227:65 0
69 *190:37 *227:65 0
70 *222:16 *227:57 3.46138e-05
71 *222:65 *227:57 6.70361e-05
*RES
1 *4658:X *227:8 42.0186 
2 *227:8 *227:12 20.8621 
3 *227:12 *227:16 26.1029 
4 *227:16 *227:26 39.7329 
5 *227:26 *4565:C1 23.8493 
6 *227:26 *227:43 39.7357 
7 *227:43 *227:57 42.195 
8 *227:57 *227:65 24.9636 
9 *227:65 *227:75 35.2586 
10 *227:75 *4530:C1 23 
11 *227:65 *4564:C1 40.0507 
12 *227:57 *4560:A1 23 
13 *227:43 *4466:B 23 
14 *227:16 *4588:A1 42.0186 
15 *227:12 *4578:A1 23 
*END

*D_NET *228 0.0210172
*CONN
*I *4549:B2 I *D sky130_fd_sc_hd__a22o_1
*I *4515:A I *D sky130_fd_sc_hd__nor2_2
*I *4556:A2 I *D sky130_fd_sc_hd__o32a_1
*I *4558:B I *D sky130_fd_sc_hd__or3_1
*I *4545:A1 I *D sky130_fd_sc_hd__a31o_1
*I *4524:B1 I *D sky130_fd_sc_hd__a21o_1
*I *4516:A I *D sky130_fd_sc_hd__or4b_1
*I *4491:A I *D sky130_fd_sc_hd__or2_4
*I *4659:X O *D sky130_fd_sc_hd__buf_2
*CAP
1 *4549:B2 2.34823e-05
2 *4515:A 0
3 *4556:A2 1.42558e-05
4 *4558:B 0
5 *4545:A1 0
6 *4524:B1 0
7 *4516:A 0
8 *4491:A 0.000217324
9 *4659:X 0.00116645
10 *228:86 0.000525915
11 *228:76 0.00089272
12 *228:70 0.00151469
13 *228:62 0.00148654
14 *228:52 0.00144072
15 *228:30 0.000438353
16 *228:28 0.0016248
17 *228:22 0.000813561
18 *228:14 0.000783046
19 *228:6 0.0013999
20 *228:52 *4457:A 8.71791e-05
21 *228:52 *241:27 0.000791469
22 *228:76 *231:60 6.16531e-05
23 *228:76 *231:69 0
24 *228:76 *244:116 0.000142029
25 *228:86 *4545:A2 9.24426e-05
26 *228:86 *231:39 9.84851e-05
27 *228:86 *231:41 0.000140259
28 *228:86 *231:60 0
29 *228:86 *242:46 0.000222204
30 *4515:B *228:28 0.000454752
31 *4515:B *228:30 4.85126e-05
32 *4525:C1 *4556:A2 6.10551e-06
33 *4525:C1 *228:70 1.10864e-05
34 *4541:A *228:76 0.000299207
35 *4549:A2 *228:14 5.3304e-05
36 *4549:B1 *228:14 5.25848e-05
37 *4549:B1 *228:22 2.93845e-05
38 *62:10 *228:22 0.000295077
39 *65:40 *228:30 0.000120554
40 *65:50 *4491:A 4.78793e-05
41 *65:50 *228:30 6.07611e-06
42 *88:12 *228:62 2.33476e-05
43 *90:8 *228:86 0
44 *90:12 *228:86 2.02872e-05
45 *90:18 *228:76 9.88678e-05
46 *98:10 *228:14 0
47 *104:10 *228:22 0.000114083
48 *107:10 *228:70 5.50106e-05
49 *110:10 *228:14 0.000141879
50 *112:14 *228:62 0.000513974
51 *112:22 *228:52 0.00054504
52 *118:12 *4491:A 0.000227208
53 *130:12 *228:62 0
54 *150:12 *228:52 2.45549e-06
55 *150:27 *228:52 5.61255e-06
56 *151:70 *4556:A2 1.38978e-05
57 *151:70 *228:70 0.000155786
58 *158:112 *228:86 0.000243088
59 *160:68 *228:62 2.11157e-05
60 *169:43 *228:22 2.31209e-05
61 *169:69 *228:6 0.000156142
62 *179:78 *228:28 0
63 *184:10 *4491:A 5.67058e-05
64 *185:27 *4491:A 9.6103e-05
65 *185:49 *228:28 0
66 *186:18 *228:28 4.5051e-05
67 *186:73 *4491:A 6.92421e-05
68 *186:73 *228:28 5.05552e-05
69 *186:73 *228:30 0.000104642
70 *191:35 *228:70 2.45549e-06
71 *196:6 *228:6 0.000811046
72 *196:16 *228:6 7.53384e-06
73 *196:75 *228:6 0.000151601
74 *218:8 *228:28 0.000163918
75 *222:12 *228:22 0.000311159
76 *222:24 *228:22 0.000364528
77 *222:33 *228:22 0.000664021
78 *223:8 *228:52 0.000136738
79 *223:14 *228:70 5.56306e-05
80 *223:103 *228:76 0.000163352
*RES
1 *4659:X *228:6 41.7257 
2 *228:6 *228:14 34.4329 
3 *228:14 *228:22 44.8521 
4 *228:22 *228:28 23.2236 
5 *228:28 *228:30 5.075 
6 *228:30 *4491:A 43.8414 
7 *228:30 *4516:A 38 
8 *228:28 *228:52 37.5371 
9 *228:52 *228:62 32.3216 
10 *228:62 *228:70 34.3989 
11 *228:70 *228:76 40.3571 
12 *228:76 *228:86 42.8014 
13 *228:86 *4524:B1 23 
14 *228:76 *4545:A1 23 
15 *228:70 *4558:B 23 
16 *228:62 *4556:A2 38.3211 
17 *228:22 *4515:A 23 
18 *228:14 *4549:B2 23.4971 
*END

*D_NET *229 0.00869104
*CONN
*I *4523:C I *D sky130_fd_sc_hd__or4_1
*I *4485:B I *D sky130_fd_sc_hd__nand2_2
*I *4569:A1_N I *D sky130_fd_sc_hd__a2bb2o_1
*I *4533:A2 I *D sky130_fd_sc_hd__a21o_1
*I *4524:A2 I *D sky130_fd_sc_hd__a21o_1
*I *4687:X O *D sky130_fd_sc_hd__buf_1
*CAP
1 *4523:C 0
2 *4485:B 0
3 *4569:A1_N 4.90418e-05
4 *4533:A2 2.34823e-05
5 *4524:A2 3.56687e-05
6 *4687:X 2.34823e-05
7 *229:55 0.00015336
8 *229:38 0.000489742
9 *229:30 0.000432412
10 *229:17 0.000916278
11 *229:6 0.000806875
12 *4524:A2 *242:38 5.90675e-06
13 *4569:A1_N *4568:A1 9.84794e-05
14 *229:17 *242:38 0.00174603
15 *229:30 *242:34 0.000176541
16 *229:30 *242:38 2.93747e-05
17 *229:38 *4568:A1 0.000116403
18 *229:38 *231:18 1.02387e-05
19 *229:38 *242:23 7.88384e-05
20 *229:38 *242:34 3.92407e-05
21 *229:38 *243:71 0.000212621
22 *229:55 *4568:A1 9.41704e-05
23 *229:55 *243:71 0.000212621
24 *4485:A *229:55 1.14452e-05
25 *4534:A2 *229:30 5.0135e-05
26 *4569:A2_N *4569:A1_N 5.67058e-05
27 *4569:A2_N *229:55 8.264e-05
28 *4687:A *4524:A2 0
29 *4687:A *229:6 0
30 *75:8 *229:17 0.000488166
31 *170:44 *229:30 0
32 *170:44 *229:38 0
33 *170:44 *229:55 9.10209e-05
34 *222:35 *229:17 0.00207748
35 *222:35 *229:30 8.264e-05
*RES
1 *4687:X *229:6 23.4971 
2 *229:6 *4524:A2 24.1186 
3 *229:6 *229:17 35.4007 
4 *229:17 *4533:A2 23.4971 
5 *229:17 *229:30 18.7079 
6 *229:30 *229:38 21.5457 
7 *229:38 *4569:A1_N 24.595 
8 *229:38 *229:55 34.06 
9 *229:55 *4485:B 23 
10 *229:30 *4523:C 38 
*END

*D_NET *230 0.0195169
*CONN
*I *4543:A1 I *D sky130_fd_sc_hd__a31o_1
*I *4506:B I *D sky130_fd_sc_hd__nor2_2
*I *4577:A I *D sky130_fd_sc_hd__or2_1
*I *4570:B2 I *D sky130_fd_sc_hd__a22o_1
*I *4489:A1 I *D sky130_fd_sc_hd__a32o_1
*I *4488:A I *D sky130_fd_sc_hd__nor2_1
*I *4568:A2 I *D sky130_fd_sc_hd__a31o_1
*I *4633:A I *D sky130_fd_sc_hd__clkbuf_1
*I *4660:X O *D sky130_fd_sc_hd__buf_2
*CAP
1 *4543:A1 0
2 *4506:B 5.64602e-05
3 *4577:A 0
4 *4570:B2 7.48656e-05
5 *4489:A1 0
6 *4488:A 0.000157866
7 *4568:A2 0
8 *4633:A 6.40951e-05
9 *4660:X 0.000819182
10 *230:93 0.000601171
11 *230:81 0.000771583
12 *230:68 0.00115387
13 *230:44 0.000376821
14 *230:35 0.000494472
15 *230:22 0.00195487
16 *230:16 0.00198358
17 *230:14 0.00175661
18 *230:10 0.00124243
19 *4570:B2 *244:10 0.000163343
20 *230:10 *236:21 0.000285385
21 *230:10 *240:8 2.54193e-05
22 *230:14 *243:91 8.4047e-05
23 *230:22 *4656:A 4.4382e-05
24 *230:22 *239:14 4.08537e-05
25 *230:35 *4656:A 7.97723e-05
26 *230:68 *4496:B 1.03955e-05
27 *230:68 *244:10 0.000108681
28 *230:93 *243:16 0
29 *230:93 *243:18 0
30 *230:93 *243:37 8.62876e-05
31 *4490:B *4506:B 0.00011548
32 *4490:B *230:68 1.03836e-05
33 *4490:B *230:81 0.000523716
34 *4517:A3 *230:35 1.4471e-05
35 *4585:S *230:93 7.98328e-05
36 *4634:A *230:10 8.08139e-06
37 *67:10 *4633:A 0.000178517
38 *78:10 *4570:B2 6.07611e-06
39 *92:10 *230:10 1.14452e-05
40 *92:10 *230:14 0.000140958
41 *93:8 *230:10 0
42 *118:12 *230:16 0.000291047
43 *118:12 *230:22 0.000184651
44 *118:12 *230:68 0.000307775
45 *130:28 *4633:A 0.000178517
46 *130:28 *230:93 0.000354122
47 *131:12 *230:93 0.000114083
48 *147:22 *230:68 7.88926e-05
49 *147:57 *230:10 2.01531e-05
50 *147:57 *230:14 2.76611e-06
51 *148:42 *230:22 0.000161121
52 *148:42 *230:35 0.000829192
53 *148:88 *230:35 0.000127263
54 *154:51 *4488:A 0
55 *154:51 *230:44 0
56 *158:64 *230:14 0
57 *158:64 *230:44 0
58 *160:35 *230:22 0.00146362
59 *171:21 *230:93 0
60 *173:8 *230:68 0.000269769
61 *174:10 *230:35 0.000160191
62 *179:99 *230:35 2.49836e-05
63 *180:63 *230:10 0
64 *180:63 *230:14 0
65 *181:6 *4488:A 5.50049e-05
66 *181:14 *4488:A 0.000222123
67 *181:14 *230:44 1.14452e-05
68 *189:14 *4570:B2 0.000135557
69 *189:14 *230:68 7.04859e-05
70 *189:34 *230:68 1.24376e-05
71 *196:33 *230:35 0.000247267
72 *199:10 *4506:B 8.6949e-05
73 *199:10 *4570:B2 0
74 *199:10 *230:81 0.000525417
75 *201:8 *4488:A 5.67058e-05
*RES
1 *4660:X *230:10 49.455 
2 *230:10 *230:14 22.54 
3 *230:14 *230:16 5.86214 
4 *230:16 *230:22 37.4129 
5 *230:22 *4633:A 40.0507 
6 *230:22 *230:35 28.8786 
7 *230:35 *4568:A2 23 
8 *230:16 *230:44 18.6664 
9 *230:44 *4488:A 41.9357 
10 *230:44 *4489:A1 38 
11 *230:14 *230:68 29.0857 
12 *230:68 *4570:B2 40.2579 
13 *230:68 *230:81 20.8621 
14 *230:81 *230:93 40.3986 
15 *230:93 *4577:A 23 
16 *230:81 *4506:B 25.2164 
17 *230:10 *4543:A1 38 
*END

*D_NET *231 0.0209164
*CONN
*I *4497:B I *D sky130_fd_sc_hd__nor2_1
*I *4631:A I *D sky130_fd_sc_hd__clkbuf_1
*I *4484:B I *D sky130_fd_sc_hd__xor2_1
*I *4545:A2 I *D sky130_fd_sc_hd__a31o_1
*I *4481:B I *D sky130_fd_sc_hd__nand2_1
*I *4661:X O *D sky130_fd_sc_hd__clkbuf_2
*CAP
1 *4497:B 4.89752e-05
2 *4631:A 0
3 *4484:B 0
4 *4545:A2 0.000112283
5 *4481:B 0.000134424
6 *4661:X 0
7 *231:75 0.000625159
8 *231:69 0.00104872
9 *231:60 0.000659973
10 *231:41 0.000865299
11 *231:39 0.00148752
12 *231:37 0.00155978
13 *231:18 0.00122044
14 *231:10 0.00199302
15 *231:4 0.00144689
16 *4481:B *243:71 0
17 *231:18 *4568:A1 0.000110913
18 *231:18 *243:71 0
19 *231:60 *242:46 0.000151497
20 *231:60 *244:116 0
21 *231:60 *244:124 0
22 *231:75 *237:10 2.93845e-05
23 *4466:A *231:10 0.000141954
24 *4541:A *231:69 1.47563e-05
25 *4541:A *231:75 0.000132521
26 *4550:C *231:39 1.46286e-05
27 *4559:A2 *231:69 0.000391663
28 *4559:A2 *231:75 8.72173e-05
29 *4687:A *231:60 0.000157378
30 *90:8 *231:60 0.000138727
31 *90:12 *4545:A2 1.57571e-05
32 *90:18 *231:60 7.75329e-06
33 *93:14 *4481:B 5.50106e-05
34 *99:10 *231:39 7.9567e-06
35 *99:37 *231:18 0.000559366
36 *107:10 *231:75 8.4047e-05
37 *109:6 *231:37 0.00150539
38 *109:18 *4481:B 1.12487e-05
39 *109:18 *231:18 9.176e-05
40 *117:8 *4481:B 0.000113153
41 *130:12 *231:75 0
42 *147:76 *231:10 0.000263657
43 *148:88 *4481:B 3.21327e-05
44 *154:34 *231:10 0.00142797
45 *158:86 *4481:B 1.39431e-05
46 *158:100 *4481:B 5.22318e-06
47 *158:112 *231:39 4.65317e-05
48 *158:112 *231:69 0
49 *159:10 *231:10 0.000141954
50 *176:20 *4497:B 4.67488e-05
51 *179:112 *231:10 0.000110913
52 *180:25 *231:39 7.53303e-06
53 *180:38 *231:39 0.000932176
54 *185:68 *231:10 0
55 *190:8 *4497:B 9.41704e-05
56 *192:14 *231:75 0.00011218
57 *224:40 *231:75 0.000125915
58 *227:43 *231:10 2.80512e-05
59 *227:57 *231:10 0.000973971
60 *227:57 *231:37 0.000965155
61 *227:57 *231:39 1.41129e-05
62 *227:65 *231:37 1.14154e-05
63 *227:65 *231:39 0.000135037
64 *228:76 *231:60 6.16531e-05
65 *228:76 *231:69 0
66 *228:86 *4545:A2 9.24426e-05
67 *228:86 *231:39 9.84851e-05
68 *228:86 *231:41 0.000140259
69 *228:86 *231:60 0
70 *229:38 *231:18 1.02387e-05
*RES
1 *4661:X *231:4 23 
2 *231:4 *231:10 48.6193 
3 *231:10 *231:18 38.9486 
4 *231:18 *4481:B 41.0243 
5 *231:18 *231:37 34.2229 
6 *231:37 *231:39 15.8671 
7 *231:39 *231:41 1.57429 
8 *231:41 *4545:A2 24.9471 
9 *231:41 *231:60 44.3343 
10 *231:60 *4484:B 23 
11 *231:39 *231:69 22.54 
12 *231:69 *231:75 27.4286 
13 *231:75 *4631:A 23 
14 *231:69 *4497:B 39.0979 
*END

*D_NET *232 0.00476313
*CONN
*I *4463:A I *D sky130_fd_sc_hd__or2_1
*I *4462:S I *D sky130_fd_sc_hd__mux2_8
*I *4476:A1 I *D sky130_fd_sc_hd__o21ai_4
*I *4475:A1 I *D sky130_fd_sc_hd__o21a_4
*I *4460:A I *D sky130_fd_sc_hd__or2_4
*I *4662:X O *D sky130_fd_sc_hd__buf_2
*CAP
1 *4463:A 0.000346875
2 *4462:S 0
3 *4476:A1 0
4 *4475:A1 0.000102493
5 *4460:A 4.24511e-05
6 *4662:X 8.18224e-05
7 *232:49 0.000480893
8 *232:40 0.000170996
9 *232:27 0.00091968
10 *232:10 0.000864959
11 *232:6 0.000392158
12 *4463:A *4462:A1 7.23925e-05
13 *4463:A *253:10 0.000151497
14 *232:27 *4474:B 0.000794071
15 *232:27 *245:24 0
16 *232:49 *4462:A1 1.44546e-05
17 *54:37 *232:27 0.000271682
18 *54:37 *232:49 0
19 *167:6 *4475:A1 5.67058e-05
20 *167:12 *232:40 0
21 *208:18 *232:49 0
22 *209:20 *232:40 0
*RES
1 *4662:X *232:6 24.0979 
2 *232:6 *232:10 3.37643 
3 *232:10 *4460:A 23.6214 
4 *232:10 *232:27 46.4679 
5 *232:27 *4475:A1 25.0507 
6 *232:27 *232:40 32.61 
7 *232:40 *4476:A1 23 
8 *232:6 *232:49 17.2579 
9 *232:49 *4462:S 15 
10 *232:49 *4463:A 46.5964 
*END

*D_NET *233 0.000913974
*CONN
*I *4659:A I *D sky130_fd_sc_hd__buf_2
*I *4503:A I *D sky130_fd_sc_hd__nand2_4
*I *4553:A2 I *D sky130_fd_sc_hd__a311o_1
*I *4628:X O *D sky130_fd_sc_hd__clkbuf_1
*CAP
1 *4659:A 0
2 *4503:A 9.54995e-05
3 *4553:A2 0
4 *4628:X 5.42877e-05
5 *233:19 0.000135615
6 *233:12 5.79901e-05
7 *233:6 0.000152393
8 *233:12 *236:70 1.14452e-05
9 *233:12 *236:85 9.94675e-05
10 *175:98 *233:12 0.000113153
11 *196:75 *4503:A 0.000181925
12 *196:75 *233:6 1.21972e-05
*RES
1 *4628:X *233:6 23.6214 
2 *233:6 *233:12 31.5536 
3 *233:12 *4553:A2 23 
4 *233:6 *233:19 0.849286 
5 *233:19 *4503:A 25.0507 
6 *233:19 *4659:A 23 
*END

*D_NET *234 0.00603909
*CONN
*I *4658:A I *D sky130_fd_sc_hd__buf_2
*I *4576:A1 I *D sky130_fd_sc_hd__a31o_1
*I *4574:A I *D sky130_fd_sc_hd__nor2_1
*I *4505:B1 I *D sky130_fd_sc_hd__a31o_1
*I *4629:X O *D sky130_fd_sc_hd__clkbuf_1
*CAP
1 *4658:A 7.56189e-05
2 *4576:A1 2.00578e-05
3 *4574:A 2.138e-05
4 *4505:B1 0
5 *4629:X 0
6 *234:26 0.00126422
7 *234:18 0.00153342
8 *234:12 0.000714799
9 *234:6 0.000522541
10 *4505:A1 *234:26 0.000395857
11 *4576:A2 *234:18 1.76557e-05
12 *78:10 *234:26 6.46633e-05
13 *123:8 *234:12 4.04598e-06
14 *123:8 *234:18 3.58084e-06
15 *154:10 *234:12 0
16 *154:25 *4658:A 0
17 *154:25 *234:12 0
18 *155:65 *4574:A 5.24393e-05
19 *155:65 *234:26 0.00041353
20 *157:10 *4658:A 5.50049e-05
21 *168:12 *4574:A 6.16531e-05
22 *168:12 *234:26 0.00041129
23 *175:23 *234:26 0.000218473
24 *199:56 *4576:A1 0
25 *199:56 *234:18 0.00018886
*RES
1 *4629:X *234:6 38 
2 *234:6 *234:12 22.9543 
3 *234:12 *234:18 18.9771 
4 *234:18 *234:26 42.5086 
5 *234:26 *4505:B1 23 
6 *234:18 *4574:A 38.8493 
7 *234:12 *4576:A1 23.4971 
8 *234:6 *4658:A 39.4707 
*END

*D_NET *235 0.00283516
*CONN
*I *4456:A1 I *D sky130_fd_sc_hd__mux2_1
*I *4648:X O *D sky130_fd_sc_hd__buf_1
*CAP
1 *4456:A1 0
2 *4648:X 0
3 *235:12 0.000582854
4 *235:6 0.000582854
5 *235:12 *4456:S 0.000139352
6 *235:12 *256:12 0
7 *4478:A1 *235:12 0.00126451
8 *46:10 *235:12 0.000166504
9 *204:54 *235:12 4.23714e-05
10 *205:24 *235:12 5.67058e-05
*RES
1 *4648:X *235:6 38 
2 *235:6 *235:12 32.5657 
3 *235:12 *4456:A1 23 
*END

*D_NET *236 0.0102808
*CONN
*I *4591:A1 I *D sky130_fd_sc_hd__a21oi_1
*I *4553:A1 I *D sky130_fd_sc_hd__a311o_1
*I *4589:A1 I *D sky130_fd_sc_hd__o31a_1
*I *4507:A1 I *D sky130_fd_sc_hd__o22a_1
*I *4542:B1 I *D sky130_fd_sc_hd__o211a_1
*I *4654:A I *D sky130_fd_sc_hd__clkbuf_2
*I *4630:X O *D sky130_fd_sc_hd__clkbuf_1
*CAP
1 *4591:A1 0
2 *4553:A1 0
3 *4589:A1 0
4 *4507:A1 0
5 *4542:B1 0
6 *4654:A 0
7 *4630:X 0.000157527
8 *236:85 0.000433696
9 *236:70 0.00060547
10 *236:63 0.000205676
11 *236:51 0.000519029
12 *236:40 0.000474081
13 *236:25 0.000703726
14 *236:21 0.00084955
15 *236:12 0.000512608
16 *236:8 0.000191808
17 *236:8 *4459:B 0
18 *236:25 *238:24 0.000201076
19 *236:51 *238:24 0.000167652
20 *236:63 *238:16 2.93747e-05
21 *236:63 *238:24 7.53384e-06
22 *4542:C1 *236:40 6.29487e-05
23 *4589:B1 *236:25 0.000204337
24 *4589:B1 *236:51 6.59431e-05
25 *4591:B1 *236:85 2.4754e-05
26 *118:8 *236:40 0.000215782
27 *147:14 *236:40 0.000105072
28 *147:22 *236:40 9.95114e-05
29 *147:76 *236:70 0.000108681
30 *148:73 *236:63 0.000231821
31 *154:47 *236:8 1.37349e-05
32 *154:51 *236:8 3.72639e-05
33 *160:16 *236:25 0
34 *160:16 *236:63 5.94125e-05
35 *164:29 *236:40 0.000632107
36 *165:24 *236:8 0
37 *168:26 *236:25 0.000166532
38 *168:26 *236:40 5.50106e-05
39 *175:98 *236:51 5.55278e-05
40 *175:98 *236:70 0.000128131
41 *175:98 *236:85 0.000485392
42 *186:10 *236:8 0.000136486
43 *196:75 *236:63 6.16439e-05
44 *199:24 *236:25 1.14452e-05
45 *218:8 *236:12 1.94812e-05
46 *218:8 *236:21 0.000428147
47 *218:12 *236:51 0.000216721
48 *218:12 *236:70 0.000397716
49 *218:12 *236:85 0.000802051
50 *230:10 *236:21 0.000285385
51 *233:12 *236:70 1.14452e-05
52 *233:12 *236:85 9.94675e-05
*RES
1 *4630:X *236:8 41.3143 
2 *236:8 *236:12 15.6214 
3 *236:12 *4654:A 23 
4 *236:12 *236:21 27.5321 
5 *236:21 *236:25 20.7793 
6 *236:25 *4542:B1 23 
7 *236:25 *236:40 42.5736 
8 *236:40 *4507:A1 23 
9 *236:21 *236:51 4.785 
10 *236:51 *236:63 48.5214 
11 *236:63 *4589:A1 23 
12 *236:51 *236:70 5.42714 
13 *236:70 *4553:A1 38 
14 *236:70 *236:85 28.2571 
15 *236:85 *4591:A1 23 
*END

*D_NET *237 0.00397068
*CONN
*I *4657:A I *D sky130_fd_sc_hd__clkbuf_2
*I *4483:B I *D sky130_fd_sc_hd__xnor2_1
*I *4557:C I *D sky130_fd_sc_hd__and3_4
*I *4499:A2 I *D sky130_fd_sc_hd__o21ai_2
*I *4487:B I *D sky130_fd_sc_hd__nand2b_4
*I *4631:X O *D sky130_fd_sc_hd__clkbuf_1
*CAP
1 *4657:A 0
2 *4483:B 0
3 *4557:C 0.000223656
4 *4499:A2 0.000452028
5 *4487:B 8.97984e-05
6 *4631:X 0.000111573
7 *237:24 0.000729371
8 *237:20 0.000411201
9 *237:18 0.000196794
10 *237:14 0.000264298
11 *237:10 0.000179077
12 *237:10 *244:94 1.01436e-05
13 *237:10 *244:105 0.000138727
14 *237:18 *4483:A 0.000137651
15 *151:10 *237:10 6.79006e-05
16 *180:8 *4557:C 0.00046596
17 *180:8 *237:24 0.000355699
18 *180:50 *4499:A2 1.02949e-05
19 *223:61 *4499:A2 2.93845e-05
20 *223:67 *4499:A2 2.64616e-05
21 *224:28 *4499:A2 0
22 *224:40 *4499:A2 4.12802e-05
23 *231:75 *237:10 2.93845e-05
*RES
1 *4631:X *237:10 40.5271 
2 *237:10 *237:14 16.5743 
3 *237:14 *237:18 3.97714 
4 *237:18 *237:20 15 
5 *237:20 *237:24 19.7229 
6 *237:24 *4487:B 24.4707 
7 *237:24 *4499:A2 29.235 
8 *237:20 *4557:C 44.1314 
9 *237:18 *4483:B 23 
10 *237:14 *4657:A 23 
*END

*D_NET *238 0.013545
*CONN
*I *4511:A3 I *D sky130_fd_sc_hd__a32o_1
*I *4562:A2 I *D sky130_fd_sc_hd__a22o_1
*I *4661:A I *D sky130_fd_sc_hd__clkbuf_2
*I *4589:A2 I *D sky130_fd_sc_hd__o31a_1
*I *4496:B I *D sky130_fd_sc_hd__nand2_2
*I *4480:B I *D sky130_fd_sc_hd__nand2_2
*I *4632:X O *D sky130_fd_sc_hd__clkbuf_1
*CAP
1 *4511:A3 0
2 *4562:A2 0
3 *4661:A 9.93981e-05
4 *4589:A2 0
5 *4496:B 0.000255015
6 *4480:B 0.000160999
7 *4632:X 0.000102641
8 *238:66 0.000186817
9 *238:58 0.00139867
10 *238:24 0.00101329
11 *238:16 0.000887015
12 *238:10 0.000589465
13 *238:8 0.00151482
14 *238:66 *257:10 0
15 *4562:A1 *238:66 0.000124873
16 *4592:A1 *238:58 0.000227208
17 *118:12 *4480:B 0.000308028
18 *118:12 *4496:B 0.000436756
19 *135:10 *238:10 1.01436e-05
20 *135:10 *238:16 0.000139647
21 *136:14 *238:10 0.000425511
22 *136:14 *238:58 0.000768854
23 *137:8 *238:58 0
24 *147:10 *238:10 0.000425511
25 *147:10 *238:58 0.000605511
26 *147:12 *238:10 7.70737e-05
27 *147:12 *238:16 0.000244517
28 *147:22 *4496:B 5.67058e-05
29 *148:73 *238:16 9.50292e-05
30 *148:73 *238:24 6.83551e-05
31 *154:34 *4661:A 0.000181125
32 *169:87 *238:16 0
33 *171:17 *238:10 0
34 *175:83 *238:24 0.000416976
35 *175:98 *238:24 0.000607482
36 *178:59 *238:16 2.31209e-05
37 *199:10 *4496:B 6.17437e-06
38 *199:24 *238:24 0.000416976
39 *216:6 *238:58 0.00125526
40 *218:12 *238:58 0
41 *230:68 *4496:B 1.03955e-05
42 *236:25 *238:24 0.000201076
43 *236:51 *238:24 0.000167652
44 *236:63 *238:16 2.93747e-05
45 *236:63 *238:24 7.53384e-06
*RES
1 *4632:X *238:8 39.0979 
2 *238:8 *238:10 6.83571 
3 *238:10 *238:16 21.7943 
4 *238:16 *238:24 46.4057 
5 *238:24 *4480:B 26.48 
6 *238:24 *4496:B 28.8621 
7 *238:16 *4589:A2 23 
8 *238:10 *4661:A 40.0507 
9 *238:8 *238:58 49.8 
10 *238:58 *238:66 33.9357 
11 *238:66 *4562:A2 23 
12 *238:58 *4511:A3 23 
*END

*D_NET *239 0.00378701
*CONN
*I *4656:A I *D sky130_fd_sc_hd__buf_2
*I *4501:A1 I *D sky130_fd_sc_hd__o221a_1
*I *4518:C1 I *D sky130_fd_sc_hd__a211o_1
*I *4633:X O *D sky130_fd_sc_hd__clkbuf_1
*CAP
1 *4656:A 0.000195417
2 *4501:A1 0
3 *4518:C1 0
4 *4633:X 0.000165879
5 *239:24 0.000186936
6 *239:14 0.00067071
7 *239:8 0.00084507
8 *4656:A *243:56 9.67842e-05
9 *4479:A *239:24 1.01436e-05
10 *4517:A3 *4656:A 0.000187057
11 *4518:B1 *239:24 9.58714e-05
12 *65:50 *239:14 0
13 *65:50 *239:24 0
14 *67:10 *239:8 9.17998e-05
15 *148:33 *239:14 0.000101004
16 *148:42 *239:14 2.8682e-05
17 *158:148 *4656:A 0
18 *168:30 *4656:A 9.67842e-05
19 *172:16 *239:14 0.000129771
20 *172:16 *239:24 0.000165034
21 *175:48 *239:24 9.75779e-05
22 *180:59 *239:14 1.5769e-05
23 *180:59 *239:24 1.59094e-05
24 *226:46 *4656:A 7.75329e-06
25 *226:46 *239:14 0.000176009
26 *226:46 *239:24 0.000242042
27 *230:22 *4656:A 4.4382e-05
28 *230:22 *239:14 4.08537e-05
29 *230:35 *4656:A 7.97723e-05
*RES
1 *4633:X *239:8 40.0507 
2 *239:8 *239:14 25.9786 
3 *239:14 *239:24 35.0336 
4 *239:24 *4518:C1 23 
5 *239:14 *4501:A1 23 
6 *239:8 *4656:A 42.7643 
*END

*D_NET *240 0.00280936
*CONN
*I *4579:C I *D sky130_fd_sc_hd__and4_1
*I *4588:A2 I *D sky130_fd_sc_hd__a31o_1
*I *4660:A I *D sky130_fd_sc_hd__buf_2
*I *4634:X O *D sky130_fd_sc_hd__clkbuf_1
*CAP
1 *4579:C 0.000423325
2 *4588:A2 0
3 *4660:A 0
4 *4634:X 0.000105385
5 *240:21 0.000709865
6 *240:8 0.000391925
7 *4588:A1 *240:21 0.000246767
8 *4634:A *240:8 5.50049e-05
9 *133:10 *4579:C 0.00045872
10 *148:73 *4579:C 4.46462e-05
11 *164:14 *240:8 1.14154e-05
12 *164:14 *240:21 0.000148688
13 *164:16 *240:8 0.000127821
14 *164:16 *240:21 1.03955e-05
15 *178:59 *240:21 4.99867e-05
16 *230:10 *240:8 2.54193e-05
*RES
1 *4634:X *240:8 25.9 
2 *240:8 *4660:A 23 
3 *240:8 *240:21 36.7943 
4 *240:21 *4588:A2 23 
5 *240:21 *4579:C 29.7114 
*END

*D_NET *241 0.00581396
*CONN
*I *4655:A I *D sky130_fd_sc_hd__buf_2
*I *4457:A I *D sky130_fd_sc_hd__clkinv_1
*I *4519:A1 I *D sky130_fd_sc_hd__a21o_1
*I *4635:X O *D sky130_fd_sc_hd__clkbuf_1
*CAP
1 *4655:A 0
2 *4457:A 7.68969e-05
3 *4519:A1 0
4 *4635:X 0.000199735
5 *241:27 0.000406902
6 *241:14 0.000943582
7 *241:8 0.00147332
8 *69:10 *241:14 6.00922e-06
9 *70:8 *241:14 0.000161873
10 *71:8 *241:14 0
11 *112:22 *241:27 0.000747994
12 *119:8 *241:14 9.32613e-05
13 *119:8 *241:27 8.40478e-05
14 *150:27 *4457:A 9.4713e-05
15 *150:27 *241:27 1.22822e-05
16 *158:148 *241:14 0
17 *175:56 *241:14 0.000143655
18 *179:42 *241:14 2.4754e-05
19 *192:29 *241:14 5.50106e-05
20 *192:44 *241:14 0.0001441
21 *224:10 *241:8 0.000267173
22 *228:52 *4457:A 8.71791e-05
23 *228:52 *241:27 0.000791469
*RES
1 *4635:X *241:8 41.0036 
2 *241:8 *241:14 33.27 
3 *241:14 *4519:A1 23 
4 *241:8 *241:27 27.8843 
5 *241:27 *4457:A 25.0507 
6 *241:27 *4655:A 23 
*END

*D_NET *242 0.00844834
*CONN
*I *4533:A1 I *D sky130_fd_sc_hd__a21o_1
*I *4524:A1 I *D sky130_fd_sc_hd__a21o_1
*I *4540:B I *D sky130_fd_sc_hd__nand2_1
*I *4523:A I *D sky130_fd_sc_hd__or4_1
*I *4568:A1 I *D sky130_fd_sc_hd__a31o_1
*I *4636:X O *D sky130_fd_sc_hd__buf_1
*CAP
1 *4533:A1 0
2 *4524:A1 0
3 *4540:B 0
4 *4523:A 0
5 *4568:A1 0.000276567
6 *4636:X 4.84341e-05
7 *242:46 0.000205415
8 *242:38 0.0018555
9 *242:34 0.00181269
10 *242:23 0.000245465
11 *242:8 0.000407866
12 *4524:A2 *242:38 5.90675e-06
13 *4534:A2 *242:34 0
14 *4569:A1_N *4568:A1 9.84794e-05
15 *4569:A2_N *4568:A1 3.59635e-05
16 *4569:B1 *4568:A1 5.50049e-05
17 *4569:B2 *4568:A1 4.01634e-05
18 *72:20 *242:23 4.6318e-06
19 *72:20 *242:34 2.03909e-05
20 *99:37 *242:8 1.39431e-05
21 *109:18 *4568:A1 4.76829e-05
22 *109:18 *242:23 2.79064e-05
23 *162:77 *242:34 0
24 *169:107 *242:34 6.12496e-06
25 *227:57 *4568:A1 0.000474999
26 *228:86 *242:46 0.000222204
27 *229:17 *242:38 0.00174603
28 *229:30 *242:34 0.000176541
29 *229:30 *242:38 2.93747e-05
30 *229:38 *4568:A1 0.000116403
31 *229:38 *242:23 7.88384e-05
32 *229:38 *242:34 3.92407e-05
33 *229:55 *4568:A1 9.41704e-05
34 *231:18 *4568:A1 0.000110913
35 *231:60 *242:46 0.000151497
*RES
1 *4636:X *242:8 38.6214 
2 *242:8 *4568:A1 46.7207 
3 *242:8 *242:23 1.90571 
4 *242:23 *4523:A 38 
5 *242:23 *242:34 18.6664 
6 *242:34 *242:38 35.4214 
7 *242:38 *242:46 36.4007 
8 *242:46 *4540:B 23 
9 *242:38 *4524:A1 23 
10 *242:34 *4533:A1 23 
*END

*D_NET *243 0.0239375
*CONN
*I *4579:B I *D sky130_fd_sc_hd__and4_1
*I *4480:A I *D sky130_fd_sc_hd__nand2_2
*I *4459:B I *D sky130_fd_sc_hd__or2_1
*I *4636:A I *D sky130_fd_sc_hd__buf_1
*I *4635:A I *D sky130_fd_sc_hd__clkbuf_1
*I *4506:A I *D sky130_fd_sc_hd__nor2_2
*I *4490:A_N I *D sky130_fd_sc_hd__and2b_4
*I *4637:X O *D sky130_fd_sc_hd__buf_1
*CAP
1 *4579:B 1.9139e-05
2 *4480:A 0
3 *4459:B 0.000211441
4 *4636:A 0
5 *4635:A 6.46038e-05
6 *4506:A 0
7 *4490:A_N 5.62512e-05
8 *4637:X 0
9 *243:106 0.00033744
10 *243:91 0.000125779
11 *243:71 0.000605762
12 *243:56 0.00185998
13 *243:52 0.00194582
14 *243:46 0.00204402
15 *243:37 0.000229266
16 *243:18 0.000345224
17 *243:16 0.00230956
18 *243:10 0.0032644
19 *243:4 0.00206972
20 *243:10 *4472:A2 4.20975e-05
21 *243:10 *246:12 5.42343e-05
22 *243:46 *244:10 9.84794e-05
23 *4472:B1 *243:10 8.10976e-05
24 *4481:B *243:71 0
25 *4485:A *243:71 0.000129953
26 *4517:A3 *243:71 2.89463e-05
27 *4521:B1 *243:71 3.0647e-05
28 *4572:A1 *243:71 0.000124082
29 *4587:A3 *243:16 0
30 *4656:A *243:56 9.67842e-05
31 *65:36 *4635:A 1.14762e-05
32 *102:23 *243:10 0.000169665
33 *114:12 *243:71 0.000110922
34 *117:8 *243:71 0
35 *124:10 *243:16 0
36 *126:28 *243:10 1.89075e-05
37 *126:28 *243:16 3.83778e-05
38 *131:8 *243:46 0.000272377
39 *131:12 *243:16 0
40 *131:12 *243:106 0.000133316
41 *133:10 *4579:B 5.3304e-05
42 *148:88 *243:71 0.000135547
43 *150:27 *243:71 6.08751e-05
44 *154:25 *243:106 0.000182826
45 *154:34 *243:106 2.63049e-05
46 *154:51 *4459:B 0
47 *154:51 *243:52 0
48 *158:64 *4459:B 0
49 *158:64 *243:52 0
50 *158:64 *243:91 0
51 *158:148 *243:71 0
52 *160:22 *243:46 0.000650619
53 *160:22 *243:52 0.000482844
54 *162:12 *243:10 0
55 *162:12 *243:16 0
56 *165:6 *243:10 0.00221572
57 *165:24 *4459:B 0
58 *168:26 *243:56 0.000148008
59 *168:30 *4635:A 5.12254e-05
60 *168:30 *243:56 0.000907436
61 *170:44 *243:71 5.97583e-05
62 *171:17 *243:106 0
63 *171:34 *4579:B 5.50049e-05
64 *180:63 *243:91 0
65 *183:8 *4490:A_N 0.000110913
66 *183:8 *243:16 5.94125e-05
67 *183:8 *243:18 8.4047e-05
68 *183:18 *243:46 0.000476471
69 *189:34 *243:37 0.000270682
70 *196:33 *243:71 5.90738e-05
71 *224:10 *4635:A 0.000152468
72 *224:10 *243:56 0.000169589
73 *229:38 *243:71 0.000212621
74 *229:55 *243:71 0.000212621
75 *230:14 *243:91 8.4047e-05
76 *230:93 *243:16 0
77 *230:93 *243:18 0
78 *230:93 *243:37 8.62876e-05
79 *231:18 *243:71 0
80 *236:8 *4459:B 0
*RES
1 *4637:X *243:4 23 
2 *243:4 *243:10 49.075 
3 *243:10 *243:16 14.9971 
4 *243:16 *243:18 1.20143 
5 *243:18 *4490:A_N 39.5536 
6 *243:18 *243:37 49.205 
7 *243:37 *4506:A 23 
8 *243:16 *243:46 36.1079 
9 *243:46 *243:52 23.7 
10 *243:52 *243:56 38.9664 
11 *243:56 *4635:A 25.0714 
12 *243:56 *243:71 44.935 
13 *243:71 *4636:A 23 
14 *243:52 *4459:B 41.6664 
15 *243:46 *243:91 32.2579 
16 *243:91 *4480:A 23 
17 *243:10 *243:106 49.9093 
18 *243:106 *4579:B 23.6214 
*END

*D_NET *244 0.0238824
*CONN
*I *4458:A I *D sky130_fd_sc_hd__nor2_2
*I *4540:A I *D sky130_fd_sc_hd__nand2_1
*I *4484:A I *D sky130_fd_sc_hd__xor2_1
*I *4557:A I *D sky130_fd_sc_hd__and3_4
*I *4483:A I *D sky130_fd_sc_hd__xnor2_1
*I *4489:B2 I *D sky130_fd_sc_hd__a32o_1
*I *4556:B2 I *D sky130_fd_sc_hd__o32a_1
*I *4537:A1 I *D sky130_fd_sc_hd__a211o_1
*I *4455:A I *D sky130_fd_sc_hd__inv_4
*I *4482:B I *D sky130_fd_sc_hd__nand2b_4
*I *4638:X O *D sky130_fd_sc_hd__clkbuf_2
*CAP
1 *4458:A 0
2 *4540:A 0.00012251
3 *4484:A 0
4 *4557:A 0
5 *4483:A 0.000102229
6 *4489:B2 2.34823e-05
7 *4556:B2 0
8 *4537:A1 1.34103e-05
9 *4455:A 0.000230515
10 *4482:B 0.000284609
11 *4638:X 0.000267309
12 *244:124 0.000421741
13 *244:116 0.00107112
14 *244:105 0.000698974
15 *244:94 0.000427444
16 *244:88 0.00127512
17 *244:82 0.00120827
18 *244:61 0.00059167
19 *244:35 0.000382076
20 *244:29 0.000816076
21 *244:27 0.00251497
22 *244:25 0.00312438
23 *244:10 0.00113785
24 *4489:A2 *244:25 0.000291056
25 *4489:A2 *244:27 5.7932e-05
26 *4502:A2 *244:27 0.000225399
27 *4505:A1 *4482:B 0
28 *4507:B1 *244:25 1.76557e-05
29 *4513:B1 *244:61 4.60157e-05
30 *4525:C1 *244:61 0.000319182
31 *4537:C1 *4455:A 1.14154e-05
32 *4537:C1 *4537:A1 4.00259e-06
33 *4538:A3 *244:27 0.000207603
34 *4546:A1 *244:116 0.000547125
35 *4556:A3 *244:61 1.95443e-05
36 *4556:B1 *244:61 1.82963e-05
37 *4570:B2 *244:10 0.000163343
38 *78:10 *4482:B 3.31683e-05
39 *78:10 *244:10 1.52362e-05
40 *87:10 *244:35 0.000107021
41 *87:10 *244:61 1.19796e-05
42 *90:18 *244:116 0.000224345
43 *106:12 *244:116 0.000169683
44 *147:22 *244:10 0
45 *148:8 *244:82 2.54046e-05
46 *150:12 *244:61 1.01436e-05
47 *151:10 *244:88 1.39317e-05
48 *151:10 *244:94 6.00827e-05
49 *151:10 *244:105 9.43568e-05
50 *151:28 *244:88 9.67842e-05
51 *151:70 *244:35 1.52259e-05
52 *155:20 *4482:B 4.95081e-05
53 *169:12 *4482:B 0.000125023
54 *169:12 *244:10 4.02103e-05
55 *169:16 *244:25 5.19833e-05
56 *169:16 *244:27 1.84959e-05
57 *169:22 *244:27 8.38096e-05
58 *169:87 *244:10 8.76751e-05
59 *175:10 *4482:B 5.67058e-05
60 *176:10 *4483:A 2.93747e-05
61 *176:10 *244:105 0.000382574
62 *176:10 *244:116 0.000343324
63 *178:24 *244:27 0.000135726
64 *179:12 *244:35 3.47781e-05
65 *179:25 *244:35 5.3304e-05
66 *179:25 *244:61 0
67 *180:8 *244:94 0.000125894
68 *180:8 *244:105 2.24151e-05
69 *180:25 *244:116 0.00010404
70 *180:50 *4455:A 8.85483e-05
71 *180:50 *244:35 4.5051e-05
72 *181:14 *244:27 1.19077e-05
73 *183:18 *244:10 9.84794e-05
74 *189:14 *244:25 2.98648e-05
75 *191:8 *244:27 3.17634e-05
76 *191:12 *244:61 0.000180834
77 *191:25 *244:61 5.57022e-05
78 *191:46 *244:61 0.000150371
79 *192:23 *4455:A 2.65505e-05
80 *193:12 *244:27 0.000109125
81 *195:10 *244:27 0.000272383
82 *199:16 *244:25 0.000255642
83 *199:24 *244:25 0.000230604
84 *200:10 *244:25 0.000827125
85 *223:25 *244:82 0
86 *223:49 *4455:A 0.000141954
87 *223:82 *244:94 0
88 *223:103 *244:105 6.07611e-06
89 *223:103 *244:116 0.000136019
90 *224:14 *244:61 0.000134009
91 *224:16 *244:61 0.000229367
92 *224:20 *244:35 0.000326983
93 *224:20 *244:61 0.000263108
94 *224:24 *4455:A 4.2062e-05
95 *224:24 *244:35 1.57571e-05
96 *224:28 *4455:A 0.00020603
97 *226:10 *244:82 6.6869e-05
98 *228:76 *244:116 0.000142029
99 *230:68 *244:10 0.000108681
100 *231:60 *244:116 0
101 *231:60 *244:124 0
102 *237:10 *244:94 1.01436e-05
103 *237:10 *244:105 0.000138727
104 *237:18 *4483:A 0.000137651
105 *243:46 *244:10 9.84794e-05
*RES
1 *4638:X *244:10 44.8771 
2 *244:10 *4482:B 44.6493 
3 *244:10 *244:25 32.2964 
4 *244:25 *244:27 43.9764 
5 *244:27 *244:29 15 
6 *244:29 *244:35 21.525 
7 *244:35 *4455:A 27.5986 
8 *244:35 *4537:A1 23.4971 
9 *244:29 *244:61 29.7693 
10 *244:61 *4556:B2 23 
11 *244:25 *4489:B2 23.4971 
12 *4455:A *244:82 39.9057 
13 *244:82 *244:88 29.3343 
14 *244:88 *244:94 18.9357 
15 *244:94 *4483:A 40.0507 
16 *244:94 *244:105 5.77929 
17 *244:105 *4557:A 38 
18 *244:105 *244:116 32.0479 
19 *244:116 *244:124 37.83 
20 *244:124 *4484:A 23 
21 *244:116 *4540:A 25.0507 
22 *244:88 *4458:A 23 
*END

*D_NET *245 0.0066765
*CONN
*I *4613:A I *D sky130_fd_sc_hd__inv_1
*I *4616:A I *D sky130_fd_sc_hd__inv_1
*I *4614:A I *D sky130_fd_sc_hd__inv_1
*I *4468:A I *D sky130_fd_sc_hd__or2_4
*I *4662:A I *D sky130_fd_sc_hd__buf_2
*I *4615:A I *D sky130_fd_sc_hd__inv_1
*I *4639:X O *D sky130_fd_sc_hd__clkbuf_1
*CAP
1 *4613:A 0.000294707
2 *4616:A 0
3 *4614:A 0
4 *4468:A 0
5 *4662:A 0
6 *4615:A 0
7 *4639:X 0
8 *245:60 0.000450684
9 *245:45 0.000565878
10 *245:24 0.000364991
11 *245:16 0.000800122
12 *245:14 0.000959062
13 *245:10 0.00110907
14 *245:6 0.000764655
15 *5:19 *4613:A 6.63698e-05
16 *5:19 *245:10 2.22183e-05
17 *58:10 *4613:A 1.69511e-05
18 *59:10 *245:10 0
19 *59:10 *245:60 1.99109e-05
20 *61:10 *245:60 1.42605e-05
21 *161:8 *245:16 5.67058e-05
22 *207:16 *245:10 0
23 *209:38 *245:24 0.000115019
24 *210:25 *245:14 0.000964465
25 *210:25 *245:45 8.52481e-05
26 *210:25 *245:60 0
27 *212:8 *4613:A 6.17437e-06
28 *212:10 *4613:A 0
29 *212:10 *245:10 0
30 *212:14 *245:10 0
31 *232:27 *245:24 0
*RES
1 *4639:X *245:6 38 
2 *245:6 *245:10 23.5964 
3 *245:10 *245:14 12.0764 
4 *245:14 *245:16 8.24429 
5 *245:16 *245:24 37.0584 
6 *245:24 *4615:A 23 
7 *245:16 *4662:A 23 
8 *245:14 *4468:A 23 
9 *245:10 *245:45 2.39768 
10 *245:45 *4614:A 23 
11 *245:45 *245:60 38.3996 
12 *245:60 *4616:A 23 
13 *245:6 *4613:A 43.7948 
*END

*D_NET *246 0.00405397
*CONN
*I *4471:A1 I *D sky130_fd_sc_hd__mux2_4
*I *4472:A2 I *D sky130_fd_sc_hd__o21ai_2
*I *4649:X O *D sky130_fd_sc_hd__buf_1
*CAP
1 *4471:A1 0
2 *4472:A2 0.000141007
3 *4649:X 0
4 *246:29 0.000172111
5 *246:12 0.00147462
6 *246:6 0.0011615
7 *246:12 *4465:A1 0
8 *246:12 *256:12 0.000463837
9 *246:29 *253:10 0.000150878
10 *4472:B1 *4472:A2 1.24376e-05
11 *4472:B1 *246:12 0.000212168
12 *4637:A *246:12 5.67058e-05
13 *54:8 *246:29 3.14214e-05
14 *54:10 *246:29 7.55729e-05
15 *165:6 *4472:A2 5.37348e-06
16 *243:10 *4472:A2 4.20975e-05
17 *243:10 *246:12 5.42343e-05
*RES
1 *4649:X *246:6 38 
2 *246:6 *246:12 39.795 
3 *246:12 *4472:A2 25.5479 
4 *246:12 *246:29 34.5157 
5 *246:29 *4471:A1 23 
*END

*D_NET *247 0.0132945
*CONN
*I *4454:S I *D sky130_fd_sc_hd__mux2_8
*I *4456:S I *D sky130_fd_sc_hd__mux2_1
*I *4452:A I *D sky130_fd_sc_hd__inv_6
*I *4610:A I *D sky130_fd_sc_hd__inv_1
*I *4611:A I *D sky130_fd_sc_hd__inv_1
*I *4478:S I *D sky130_fd_sc_hd__mux2_8
*I *4470:A I *D sky130_fd_sc_hd__or2_1
*I *4471:S I *D sky130_fd_sc_hd__mux2_4
*I *4465:S I *D sky130_fd_sc_hd__mux2_8
*I *4612:A I *D sky130_fd_sc_hd__inv_1
*I *4640:X O *D sky130_fd_sc_hd__clkbuf_2
*CAP
1 *4454:S 4.45348e-05
2 *4456:S 0.000443085
3 *4452:A 4.45348e-05
4 *4610:A 0.000128287
5 *4611:A 0.000225604
6 *4478:S 0.00101539
7 *4470:A 0
8 *4471:S 0.000245858
9 *4465:S 0.000488462
10 *4612:A 1.22438e-05
11 *4640:X 0.000325878
12 *247:98 0.000350632
13 *247:64 0.00104429
14 *247:41 0.000245858
15 *247:29 0.000541886
16 *247:27 0.000275101
17 *247:25 0.000976908
18 *247:21 0.00172214
19 *247:10 0.000392963
20 *4465:S *4465:A1 0.000408798
21 *4465:S *253:10 0
22 *4478:S *4465:A1 0.000196935
23 *4478:S *253:10 0
24 *247:29 *4465:A1 4.18957e-05
25 *247:29 *253:10 0
26 *247:64 *250:8 0.000197479
27 *247:98 *253:10 0.000204869
28 *4454:A0 *4454:S 2.03425e-05
29 *4454:A0 *247:98 9.91798e-05
30 *4471:A0 *4471:S 0.000269775
31 *4471:A0 *247:25 4.5051e-05
32 *4478:A0 *247:98 2.68674e-06
33 *4478:A1 *4456:S 0.000280774
34 *4642:A *4611:A 5.50049e-05
35 *4642:A *247:64 0
36 *3:15 *247:10 0
37 *3:15 *247:21 0
38 *3:15 *247:64 0
39 *54:8 *247:98 0.000226364
40 *55:10 *4610:A 8.54231e-06
41 *56:10 *4611:A 9.81081e-06
42 *57:10 *4612:A 1.16872e-05
43 *57:10 *247:10 0.000114074
44 *163:8 *4478:S 8.16253e-05
45 *203:14 *247:98 0.000253061
46 *204:14 *4610:A 9.6289e-05
47 *204:14 *247:64 5.55175e-05
48 *205:16 *247:64 0
49 *205:24 *4456:S 2.4754e-05
50 *206:10 *247:10 0
51 *206:14 *4612:A 2.35426e-05
52 *206:14 *247:25 0.000314157
53 *206:16 *247:25 0.000308045
54 *206:20 *247:25 0.00126448
55 *206:47 *247:64 0
56 *207:48 *4465:S 1.67944e-05
57 *213:16 *247:64 0
58 *235:12 *4456:S 0.000139352
*RES
1 *4640:X *247:10 43.8207 
2 *247:10 *4612:A 38.2745 
3 *247:10 *247:21 0.849286 
4 *247:21 *247:25 36.5843 
5 *247:25 *247:27 15 
6 *247:27 *247:29 1.20143 
7 *247:29 *4465:S 26.2582 
8 *247:29 *247:41 15 
9 *247:41 *4471:S 27.93 
10 *247:41 *4470:A 23 
11 *247:27 *4478:S 20.4271 
12 *247:21 *247:64 13.8786 
13 *247:64 *4611:A 42.0859 
14 *247:64 *4610:A 40.9362 
15 *4478:S *247:98 41.1961 
16 *247:98 *4452:A 23 
17 *4478:S *4456:S 31.6896 
18 *4452:A *4454:S 24.0461 
*END

*D_NET *248 0.00512188
*CONN
*I *4464:A2 I *D sky130_fd_sc_hd__o21ai_1
*I *4465:A1 I *D sky130_fd_sc_hd__mux2_8
*I *4650:X O *D sky130_fd_sc_hd__buf_1
*CAP
1 *4464:A2 0.000347431
2 *4465:A1 0.00203885
3 *4650:X 0
4 *248:6 0.00169141
5 *4465:A1 *253:10 0
6 *4465:A1 *256:12 0
7 *4464:A1 *4464:A2 4.5051e-05
8 *4464:B1 *4464:A2 0.000351513
9 *4465:S *4465:A1 0.000408798
10 *4478:S *4465:A1 0.000196935
11 *156:8 *4465:A1 0
12 *246:12 *4465:A1 0
13 *247:29 *4465:A1 4.18957e-05
*RES
1 *4650:X *248:6 38 
2 *248:6 *4465:A1 48.2464 
3 *4465:A1 *4464:A2 29.6389 
*END

*D_NET *249 0.00174981
*CONN
*I *4609:A I *D sky130_fd_sc_hd__xnor2_1
*I *4641:X O *D sky130_fd_sc_hd__dlygate4sd3_1
*CAP
1 *4609:A 0.000198965
2 *4641:X 0.000214627
3 *249:10 0.000413591
4 *4623:CLK *4609:A 0.000346031
5 *53:8 *4609:A 0.000491451
6 *210:10 *249:10 0
7 *212:14 *249:10 8.51432e-05
*RES
1 *4641:X *249:10 41.7079 
2 *249:10 *4609:A 45.7886 
*END

*D_NET *250 0.00175401
*CONN
*I *4597:B1 I *D sky130_fd_sc_hd__a21oi_1
*I *4642:X O *D sky130_fd_sc_hd__dlygate4sd3_1
*CAP
1 *4597:B1 0.000173458
2 *4642:X 5.42048e-05
3 *250:8 0.000227663
4 *4598:B *4597:B1 0.00010309
5 *4619:CLK *4597:B1 0.000142916
6 *48:10 *4597:B1 8.46458e-05
7 *204:14 *4597:B1 0.000573073
8 *204:14 *250:8 0.000197479
9 *247:64 *250:8 0.000197479
*RES
1 *4642:X *250:8 40.61 
2 *250:8 *4597:B1 44.815 
*END

*D_NET *251 0.00331247
*CONN
*I *4453:A I *D sky130_fd_sc_hd__inv_1
*I *4595:B I *D sky130_fd_sc_hd__xor2_1
*I *4643:X O *D sky130_fd_sc_hd__dlygate4sd3_1
*CAP
1 *4453:A 5.35561e-05
2 *4595:B 0
3 *4643:X 0.00110161
4 *251:12 9.06141e-05
5 *251:6 0.00113867
6 *4643:A *4453:A 0.00010959
7 *46:10 *251:6 0.000699315
8 *213:40 *251:12 0
9 *213:50 *251:6 5.12254e-05
10 *213:50 *251:12 6.79006e-05
*RES
1 *4643:X *251:6 37.9143 
2 *251:6 *251:12 31.9057 
3 *251:12 *4595:B 23 
4 *4643:X *4453:A 47.2273 
*END

*D_NET *252 0.00139823
*CONN
*I *4595:A I *D sky130_fd_sc_hd__xor2_1
*I *4644:X O *D sky130_fd_sc_hd__dlygate4sd3_1
*CAP
1 *4595:A 0.000342635
2 *4644:X 0.000207201
3 *252:8 0.000549837
4 *4644:A *252:8 8.15327e-05
5 *47:10 *4595:A 0.000102368
6 *47:10 *252:8 0
7 *204:14 *252:8 0.000114656
8 *213:40 *252:8 0
*RES
1 *4644:X *252:8 43.075 
2 *252:8 *4595:A 44.815 
*END

*D_NET *253 0.00623321
*CONN
*I *4461:A2 I *D sky130_fd_sc_hd__o21ai_4
*I *4462:A1 I *D sky130_fd_sc_hd__mux2_8
*I *4651:X O *D sky130_fd_sc_hd__buf_1
*CAP
1 *4461:A2 0.000171533
2 *4462:A1 0.000145057
3 *4651:X 4.24857e-05
4 *253:10 0.00212099
5 *253:8 0.00184689
6 *253:8 *256:8 5.50106e-05
7 *253:10 *255:10 0
8 *4461:A1 *4461:A2 5.50106e-05
9 *4463:A *4462:A1 7.23925e-05
10 *4463:A *253:10 0.000151497
11 *4465:A1 *253:10 0
12 *4465:S *253:10 0
13 *4478:S *253:10 0
14 *4643:A *253:10 0.000227497
15 *54:8 *253:10 0
16 *54:10 *253:10 0
17 *54:25 *253:10 0
18 *54:37 *4462:A1 0
19 *156:8 *253:10 0.000169674
20 *158:10 *253:10 0.000335006
21 *163:8 *253:10 5.26101e-05
22 *203:8 *253:10 0.000110922
23 *203:14 *253:10 0.00030643
24 *207:48 *253:10 0
25 *232:49 *4462:A1 1.44546e-05
26 *246:29 *253:10 0.000150878
27 *247:29 *253:10 0
28 *247:98 *253:10 0.000204869
*RES
1 *4651:X *253:8 38.6214 
2 *253:8 *253:10 41.3457 
3 *253:10 *4462:A1 18.3143 
4 *253:10 *4461:A2 41.0036 
*END

*D_NET *254 0.00203262
*CONN
*I *4602:A I *D sky130_fd_sc_hd__xor2_1
*I *4645:X O *D sky130_fd_sc_hd__dlygate4sd3_1
*CAP
1 *4602:A 0.000420777
2 *4645:X 0.000449672
3 *254:10 0.000870449
4 *4621:CLK *254:10 0.000135557
5 *4625:A *254:10 6.71188e-05
6 *4626:A *254:10 0
7 *5:19 *254:10 0
8 *212:8 *4602:A 2.64616e-05
9 *212:10 *254:10 6.25829e-05
*RES
1 *4645:X *254:10 45.7264 
2 *254:10 *4602:A 45.2914 
*END

*D_NET *255 0.00762844
*CONN
*I *4474:B I *D sky130_fd_sc_hd__or2_4
*I *4652:X O *D sky130_fd_sc_hd__buf_1
*CAP
1 *4474:B 9.87963e-05
2 *4652:X 4.24857e-05
3 *255:10 0.00217801
4 *255:8 0.0021217
5 *255:8 *256:8 5.50106e-05
6 *4454:A1 *255:10 0
7 *4617:RESET_B *255:10 3.04021e-05
8 *4643:A *255:10 0
9 *54:8 *255:10 0.000319989
10 *54:10 *255:10 0.000210571
11 *54:12 *255:10 0.00014522
12 *54:25 *255:10 0.000218627
13 *54:37 *4474:B 0.000795772
14 *54:37 *255:10 0.00012175
15 *153:10 *255:10 0.000141258
16 *164:8 *255:10 0.000354788
17 *203:8 *255:10 0
18 *232:27 *4474:B 0.000794071
19 *253:10 *255:10 0
*RES
1 *4652:X *255:8 38.6214 
2 *255:8 *255:10 50.1493 
3 *255:10 *4474:B 46.7207 
*END

*D_NET *256 0.00485371
*CONN
*I *4469:A2 I *D sky130_fd_sc_hd__o21ai_4
*I *4653:X O *D sky130_fd_sc_hd__buf_1
*CAP
1 *4469:A2 0
2 *4653:X 0.000553031
3 *256:12 0.00129114
4 *256:8 0.00184417
5 *4465:A1 *256:12 0
6 *46:10 *256:12 0
7 *149:8 *256:12 4.06408e-05
8 *161:12 *256:12 0
9 *204:54 *256:12 0.000107661
10 *214:6 *256:8 0.000443207
11 *235:12 *256:12 0
12 *246:12 *256:12 0.000463837
13 *253:8 *256:8 5.50106e-05
14 *255:8 *256:8 5.50106e-05
*RES
1 *4653:X *256:8 35.5529 
2 *256:8 *256:12 42.9643 
3 *256:12 *4469:A2 38 
*END

*D_NET *257 0.0059912
*CONN
*I *4670:A I *D sky130_fd_sc_hd__clkbuf_1
*I *4511:X O *D sky130_fd_sc_hd__a32o_1
*CAP
1 *4670:A 0
2 *4511:X 0.000413745
3 *257:16 0.00188496
4 *257:10 0.00229871
5 *4668:A *257:16 0.000832335
6 *216:6 *257:10 0.000274078
7 *219:14 *257:16 0.000287367
8 *238:66 *257:10 0
*RES
1 *4511:X *257:10 45.0221 
2 *257:10 *257:16 43.1507 
3 *257:16 *4670:A 23 
*END
